####################################################################### 
# 
# This file contains crystal structure data downloaded from the 
# Cambridge Structural Database (CSD) hosted by the Cambridge 
# Crystallographic Data Centre (CCDC).
# 
# Full information about CCDC data access policies and citation 
# guidelines are available at http://www.ccdc.cam.ac.uk/access/V1 
# 
# Audit and citation data items may have been added by the CCDC. 
# Please retain this information to preserve the provenance of 
# this file and to allow appropriate attribution of the data. 
# 
#######################################################################

data_global
_journal_name_full               Synlett
_journal_coden_Cambridge         1088
_journal_year                    2008
_journal_page_first              765
_audit_creation_date             2007-11-01
_audit_creation_method           'by CrystalStructure 3.8'
_audit_update_record             ?


_publ_contact_author_name        'Takanori Shibata'
_publ_contact_author_email       tshibata@waseda.jp
_publ_contact_author_fax         +81-3-5286-8098
_publ_contact_author_phone       +81-3-5286-8098
_publ_requested_category         'CHOOSE FI FM FO CI CM CO or AD'
_publ_requested_coeditor_name    ?


_publ_section_references         
;
Rigaku/MSC and Rigaku Corporation. (2006).
CrystalStructure (Version 3.8).
Single Crystal Structure Analysis Software.
Rigaku/MSC, 9009 TX, USA 77381-5209.
Rigaku, Tokyo 196-8666, Japan.

Carruthers, J.R., Rollett,J.S., Betteridge, P.W.,
Kinna, D., Pearce, L., Larsen, A., and Gabe, E.(1999)
CRYSTALS Issue 11, Chemical Crystallography Laboratory, Oxford, UK.
;
loop_
_publ_author_name
'Takanori Shibata'
G.Nishizawa
K.Endo

#==============================================================================

data__nishi
_audit_block_doi                 10.5517/ccqfzgk
_database_code_depnum_ccdc_archive 'CCDC 668839'
loop_
_citation_id
_citation_doi
_citation_year
1 10.1055/s-2008-1032112 2008
_audit_update_record             
;
2007-11-26 deposited with the CCDC.
2017-06-03 downloaded from the CCDC.
;

#==============================================================================

# CHEMICAL DATA

_chemical_formula_sum            'C38 H25 F3 Fe O2 '
_chemical_formula_moiety         'C38 H25 F3 Fe O2 '
_chemical_formula_weight         626.46
_chemical_melting_point          ?
_chemical_absolute_configuration 'CHOOSE rm ad rmad syn or unk'

#==============================================================================

# CRYSTAL DATA
_symmetry_cell_setting           monoclinic
_symmetry_space_group_name_H-M   'P 1 21 1'
_symmetry_space_group_name_Hall  'P 2yb'
_symmetry_Int_Tables_number      4
loop_
_symmetry_equiv_pos_site_id
_symmetry_equiv_pos_as_xyz
1 +X,+Y,+Z
2 -X,1/2+Y,-Z

#------------------------------------------------------------------------------

_cell_length_a                   9.2259(6)
_cell_length_b                   7.6020(4)
_cell_length_c                   25.1798(13)
_cell_angle_alpha                90.0000
_cell_angle_beta                 98.4176(17)
_cell_angle_gamma                90.0000
_cell_volume                     1746.98(17)
_cell_formula_units_Z            2
_cell_measurement_reflns_used    14513
_cell_measurement_theta_min      3.1
_cell_measurement_theta_max      27.5
_cell_measurement_temperature    123.1

#------------------------------------------------------------------------------

_exptl_crystal_description       platelet
_exptl_crystal_colour            orange
_exptl_crystal_size_max          0.75
_exptl_crystal_size_mid          0.29
_exptl_crystal_size_min          0.18
_exptl_crystal_density_diffrn    1.191
_exptl_crystal_density_meas      ?
_exptl_crystal_density_method    'not measured'
_exptl_crystal_F_000             644.00
_exptl_absorpt_coefficient_mu    0.476
_exptl_absorpt_correction_type   multi-scan
_exptl_absorpt_process_details   
;
Higashi, T. (1995). Program for Absorption Correction.
Rigaku Corporation, Tokyo, Japan.
;
_exptl_absorpt_correction_T_min  0.568
_exptl_absorpt_correction_T_max  0.918

#==============================================================================

# EXPERIMENTAL DATA

_diffrn_radiation_type           'Mo K\a'
_diffrn_radiation_wavelength     0.71075
_diffrn_measurement_device_type  'Rigaku RAXIS-RAPID'
_diffrn_measurement_method       \w
_diffrn_detector_area_resol_mean 10.00
_diffrn_reflns_number            17112
_diffrn_reflns_av_R_equivalents  0.041
_diffrn_reflns_theta_max         27.48
_diffrn_measured_fraction_theta_max 0.997
_diffrn_reflns_theta_full        27.48
_diffrn_measured_fraction_theta_full 0.997
_diffrn_reflns_limit_h_min       -11
_diffrn_reflns_limit_h_max       11
_diffrn_reflns_limit_k_min       -9
_diffrn_reflns_limit_k_max       9
_diffrn_reflns_limit_l_min       -32
_diffrn_reflns_limit_l_max       32

#==============================================================================

# REFINEMENT DATA

_refine_special_details          
;
Refinement was performed using reflections with F^2^ > 2.0 sigma(F^2^).
The weighted R-factor (wR) and goodness of fit (S) are based on F^2^.
R-factor (gt) are based on F. The threshold expression of
F^2^ > 2.0 sigma(F^2^) is used only for calculating R-factor (gt).
;
_reflns_number_total             7545
_reflns_number_gt                6227
_reflns_threshold_expression     F^2^>2.0\s(F^2^)
_refine_ls_structure_factor_coef Fsqd
_refine_ls_R_factor_gt           0.1672
_refine_ls_wR_factor_ref         0.3666
_refine_ls_hydrogen_treatment    refall
_refine_ls_number_reflns         6255
_refine_ls_number_parameters     423
_refine_ls_goodness_of_fit_ref   1.001
_refine_ls_weighting_scheme      calc
_refine_ls_weighting_details     
'w = 1/[0.0296Fo^2^ + 1.0000\s(Fo^2^)]/(4Fo^2^)'
_refine_ls_shift/su_max          0.0004
_refine_diff_density_max         15.00
_refine_diff_density_min         -1.92
_refine_ls_extinction_method     none
_refine_ls_extinction_coef       ?
_refine_ls_abs_structure_details 
'Flack, H. D. (1983), Acta Cryst. A39, 876-881. 3262 Friedel Pairs'
_refine_ls_abs_structure_Flack   -0.01(4)

loop_
_atom_type_symbol
_atom_type_description
_atom_type_scat_dispersion_real
_atom_type_scat_dispersion_imag
_atom_type_scat_source
C C 0.003 0.002
;
International Tables for Crystallography
(1992, Vol. C, Tables 4.2.6.8 and 6.1.1.4)
;
H H 0.000 0.000
;
International Tables for Crystallography
(1992, Vol. C, Table 6.1.1.4)
;
O O 0.011 0.006
;
International Tables for Crystallography
(1992, Vol. C, Tables 4.2.6.8 and 6.1.1.4)
;
F F 0.017 0.010
;
International Tables for Crystallography
(1992, Vol. C, Tables 4.2.6.8 and 6.1.1.4)
;
Fe Fe 0.346 0.844
;
International Tables for Crystallography
(1992, Vol. C, Tables 4.2.6.8 and 6.1.1.4)
;

#==============================================================================

# ATOMIC COORDINATES AND THERMAL PARAMETERS

loop_
_atom_site_label
_atom_site_type_symbol
_atom_site_fract_x
_atom_site_fract_y
_atom_site_fract_z
_atom_site_U_iso_or_equiv
_atom_site_adp_type
_atom_site_occupancy
_atom_site_symmetry_multiplicity
_atom_site_calc_flag
_atom_site_refinement_flags
_atom_site_disorder_assembly
_atom_site_disorder_group
Fe(1) Fe 0.41234(14) 0.8327(2) 0.40256(4) 0.0257(3) Uani 1.00 1 d . . .
F(4) F -0.3869(8) 0.0064(9) 0.2322(2) 0.0470(19) Uani 1.00 1 d . . .
F(5) F -0.2523(7) -0.0980(7) 0.1812(2) 0.0398(16) Uani 1.00 1 d . . .
F(20) F -0.1545(11) 0.0506(11) 0.2462(3) 0.074(2) Uani 1.00 1 d . . .
O(2) O 0.2143(7) 0.6752(9) 0.2773(2) 0.0310(16) Uani 1.00 1 d . . .
O(14) O 0.4592(7) 0.6648(11) 0.2657(2) 0.0365(18) Uani 1.00 1 d . . .
C(3) C 0.1315(7) -0.0034(9) 0.1143(2) 0.0128(16) Uani 1.00 1 d . . .
C(6) C -0.1728(7) -0.0077(9) 0.0714(2) 0.0132(16) Uani 1.00 1 d . . .
C(7) C -0.0780(8) -0.1288(8) 0.0501(3) 0.0139(15) Uani 1.00 1 d . . .
C(8) C 0.0318(7) 0.1217(9) 0.1330(2) 0.0132(16) Uani 1.00 1 d . . .
C(9) C -0.3231(8) -0.0091(10) 0.0495(2) 0.0164(17) Uani 1.00 1 d . . .
C(10) C -0.1145(7) 0.1169(9) 0.1120(2) 0.0123(15) Uani 1.00 1 d . . .
C(11) C 0.0785(7) -0.1275(8) 0.0724(2) 0.0121(15) Uani 1.00 1 d . . .
C(12) C 0.2832(8) -0.0032(9) 0.1352(3) 0.0176(18) Uani 1.00 1 d . . .
C(13) C 0.0904(7) 0.2607(10) 0.1705(2) 0.0153(16) Uani 1.00 1 d . . .
C(15) C -0.3789(8) -0.1233(9) 0.0098(3) 0.0195(18) Uani 1.00 1 d . . .
C(17) C -0.2918(8) 0.2118(11) 0.1751(2) 0.0181(17) Uani 1.00 1 d . . .
C(18) C -0.1328(8) -0.2379(11) 0.0083(3) 0.0196(18) Uani 1.00 1 d . . .
C(19) C 0.1822(8) -0.2455(10) 0.0545(3) 0.0181(17) Uani 1.00 1 d . . .
C(21) C 0.3758(9) -0.1213(10) 0.1162(3) 0.0211(18) Uani 1.00 1 d . . .
C(22) C -0.2700(10) 0.0459(12) 0.2091(3) 0.026(2) Uani 1.00 1 d . . .
C(23) C 0.3275(15) 1.0860(12) 0.3864(4) 0.041(2) Uani 1.00 1 d . . .
C(24) C 0.3751(11) 0.8796(10) 0.3229(2) 0.025(2) Uani 1.00 1 d . . .
C(25) C -0.2791(10) -0.2376(12) -0.0128(3) 0.026(2) Uani 1.00 1 d . . .
C(26) C 0.3206(9) -0.2429(11) 0.0766(3) 0.0237(19) Uani 1.00 1 d . . .
C(27) C 0.2580(11) 0.9554(12) 0.3483(3) 0.028(2) Uani 1.00 1 d . . .
C(28) C 0.3585(11) 0.7314(11) 0.2862(3) 0.030(2) Uani 1.00 1 d . . .
C(29) C 0.1828(9) 0.5334(11) 0.2409(3) 0.024(2) Uani 1.00 1 d . . .
C(30) C -0.2185(7) 0.2454(10) 0.1324(2) 0.0146(16) Uani 1.00 1 d . . .
C(31) C 0.1029(9) 0.4304(11) 0.1511(3) 0.022(2) Uani 1.00 1 d . . .
C(32) C 0.5098(12) 0.9557(14) 0.3464(4) 0.037(2) Uani 1.00 1 d . . .
C(33) C -0.3922(8) 0.3368(15) 0.1891(3) 0.0273(19) Uani 1.00 1 d . . .
C(34) C -0.4121(11) 0.4897(13) 0.1634(3) 0.033(2) Uani 1.00 1 d . . .
C(35) C 0.1250(11) 0.2323(12) 0.2267(3) 0.034(2) Uani 1.00 1 d . . .
C(36) C -0.2448(8) 0.4001(10) 0.1045(3) 0.0193(18) Uani 1.00 1 d . . .
C(38) C -0.3421(9) 0.5254(11) 0.1201(4) 0.027(2) Uani 1.00 1 d . . .
C(39) C 0.1727(12) 0.3646(12) 0.2614(3) 0.031(2) Uani 1.00 1 d . . .
C(40) C 0.3707(15) 0.7559(15) 0.4765(3) 0.044(3) Uani 1.00 1 d . . .
C(41) C 0.1491(10) 0.5683(12) 0.1868(3) 0.025(2) Uani 1.00 1 d . . .
C(42) C 0.4285(18) 0.5656(15) 0.4101(4) 0.056(3) Uani 1.00 1 d . . .
C(43) C 0.4822(13) 1.0822(13) 0.3848(3) 0.036(2) Uani 1.00 1 d . . .
C(44) C 0.5175(14) 0.7599(14) 0.4772(3) 0.041(2) Uani 1.00 1 d . . .
C(45) C 0.3010(14) 0.6358(16) 0.4388(5) 0.048(3) Uani 1.00 1 d . . .
C(46) C 0.5622(15) 0.6475(15) 0.4362(4) 0.044(3) Uani 1.00 1 d . . .
H(1) H 0.3190 0.0805 0.1620 0.021 Uiso 1.00 1 c R . .
H(2) H 0.1489 -0.3287 0.0273 0.022 Uiso 1.00 1 c R . .
H(3) H 0.4770 -0.1165 0.1303 0.025 Uiso 1.00 1 c R . .
H(4) H 0.3863 -0.3263 0.0653 0.028 Uiso 1.00 1 c R . .
H(5) H -0.3879 0.0718 0.0626 0.020 Uiso 1.00 1 c R . .
H(6) H -0.4802 -0.1246 -0.0043 0.023 Uiso 1.00 1 c R . .
H(7) H -0.0705 -0.3201 -0.0056 0.024 Uiso 1.00 1 c R . .
H(8) H -0.3156 -0.3135 -0.0416 0.031 Uiso 1.00 1 c R . .
H(9) H -0.4460 0.3078 0.2173 0.034 Uiso 1.00 1 c R . .
H(10) H -0.4737 0.5775 0.1750 0.040 Uiso 1.00 1 c R . .
H(11) H -0.2004 0.4210 0.0734 0.024 Uiso 1.00 1 c R . .
H(12) H -0.3550 0.6337 0.1012 0.033 Uiso 1.00 1 c R . .
H(13) H 0.0815 0.4546 0.1138 0.026 Uiso 1.00 1 c R . .
H(14) H 0.1188 0.1169 0.2407 0.039 Uiso 1.00 1 c R . .
H(15) H 0.2059 0.3411 0.2983 0.037 Uiso 1.00 1 c R . .
H(16) H 0.1585 0.6843 0.1737 0.030 Uiso 1.00 1 c R . .
H(17) H 0.2776 1.1557 0.4093 0.050 Uiso 1.00 1 c R . .
H(18) H 0.1574 0.9245 0.3404 0.033 Uiso 1.00 1 c R . .
H(19) H 0.4202 0.4804 0.3822 0.068 Uiso 1.00 1 c R . .
H(20) H 0.5534 1.1496 0.4072 0.042 Uiso 1.00 1 c R . .
H(21) H 0.5860 0.8290 0.5001 0.047 Uiso 1.00 1 c R . .
H(22) H 0.6569 0.6240 0.4273 0.052 Uiso 1.00 1 c R . .
H(23) H 0.3160 0.8175 0.4997 0.055 Uiso 1.00 1 c R . .
H(24) H 0.2014 0.6013 0.4300 0.057 Uiso 1.00 1 c R . .
H(25) H 0.6033 0.9290 0.3369 0.045 Uiso 1.00 1 c R . .


loop_
_atom_site_aniso_label
_atom_site_aniso_U_11
_atom_site_aniso_U_22
_atom_site_aniso_U_33
_atom_site_aniso_U_12
_atom_site_aniso_U_13
_atom_site_aniso_U_23
Fe(1) 0.0490(7) 0.0133(5) 0.0143(5) -0.0029(5) 0.0028(4) -0.0011(4)
F(4) 0.064(4) 0.037(3) 0.048(3) 0.011(2) 0.035(3) 0.023(3)
F(5) 0.063(4) 0.020(2) 0.044(3) 0.011(2) 0.029(2) 0.009(2)
F(20) 0.103(7) 0.047(4) 0.058(4) -0.024(4) -0.036(4) 0.031(4)
O(2) 0.037(3) 0.024(3) 0.031(3) -0.005(2) 0.001(2) -0.020(2)
O(14) 0.031(3) 0.050(4) 0.032(3) -0.013(2) 0.017(2) -0.025(3)
C(3) 0.015(3) 0.009(3) 0.015(3) -0.000(2) 0.005(2) 0.000(2)
C(6) 0.016(3) 0.008(3) 0.016(3) -0.002(2) 0.002(2) -0.003(2)
C(7) 0.013(3) 0.010(3) 0.020(3) 0.004(2) 0.006(2) 0.001(2)
C(8) 0.016(3) 0.011(3) 0.012(2) 0.001(2) 0.000(2) 0.005(2)
C(9) 0.016(3) 0.019(3) 0.014(3) 0.004(2) 0.003(2) -0.000(2)
C(10) 0.016(3) 0.015(3) 0.007(2) -0.001(2) 0.006(2) -0.001(2)
C(11) 0.015(3) 0.007(3) 0.013(2) 0.004(2) -0.000(2) -0.003(2)
C(12) 0.020(3) 0.011(3) 0.021(3) -0.002(2) -0.003(2) 0.001(2)
C(13) 0.013(3) 0.017(3) 0.014(3) -0.004(2) -0.004(2) 0.006(2)
C(15) 0.018(3) 0.014(3) 0.026(3) -0.009(2) 0.003(2) 0.001(2)
C(17) 0.021(3) 0.023(3) 0.011(3) -0.002(2) 0.008(2) -0.003(2)
C(18) 0.019(3) 0.023(3) 0.019(3) -0.003(2) 0.007(2) -0.004(3)
C(19) 0.020(3) 0.015(3) 0.020(3) 0.004(2) 0.006(2) -0.011(2)
C(21) 0.023(3) 0.017(3) 0.023(3) 0.003(2) 0.005(2) 0.007(2)
C(22) 0.032(4) 0.025(4) 0.023(3) 0.001(3) 0.015(3) 0.004(3)
C(23) 0.087(8) 0.010(3) 0.028(4) -0.005(4) 0.009(4) -0.012(3)
C(24) 0.054(5) 0.014(3) 0.009(3) -0.009(3) 0.009(3) 0.002(2)
C(25) 0.038(4) 0.023(3) 0.016(3) -0.002(3) -0.000(3) -0.010(3)
C(26) 0.026(4) 0.019(3) 0.024(3) 0.006(3) -0.000(3) -0.001(3)
C(27) 0.038(4) 0.026(4) 0.018(3) 0.004(3) -0.005(3) -0.012(3)
C(28) 0.054(5) 0.016(4) 0.020(3) -0.014(3) 0.004(3) 0.009(3)
C(29) 0.031(4) 0.023(4) 0.017(3) -0.008(3) 0.001(2) -0.012(3)
C(30) 0.013(3) 0.021(3) 0.010(3) -0.002(2) 0.004(2) -0.004(2)
C(31) 0.035(4) 0.015(3) 0.016(3) -0.008(2) -0.002(3) -0.004(3)
C(32) 0.050(6) 0.034(5) 0.029(4) -0.008(4) 0.010(4) 0.008(4)
C(33) 0.023(3) 0.038(4) 0.025(3) 0.013(4) 0.014(2) -0.008(4)
C(34) 0.043(5) 0.033(5) 0.023(4) 0.019(4) 0.011(3) -0.001(3)
C(35) 0.053(6) 0.016(4) 0.027(4) -0.005(3) -0.010(3) 0.009(3)
C(36) 0.021(3) 0.017(3) 0.023(3) 0.008(2) 0.013(2) 0.003(3)
C(38) 0.016(3) 0.022(4) 0.044(5) 0.014(3) 0.008(3) 0.008(3)
C(39) 0.060(6) 0.021(4) 0.010(3) -0.007(3) -0.005(3) -0.001(3)
C(40) 0.077(8) 0.043(5) 0.017(4) 0.017(5) 0.025(4) 0.003(4)
C(41) 0.034(4) 0.019(4) 0.021(3) -0.006(3) 0.003(3) -0.003(3)
C(42) 0.130(13) 0.013(4) 0.026(4) 0.004(5) 0.011(6) 0.010(4)
C(43) 0.069(7) 0.022(4) 0.014(3) -0.026(4) -0.002(3) -0.003(3)
C(44) 0.088(8) 0.022(4) 0.007(3) -0.004(4) -0.013(4) -0.006(3)
C(45) 0.057(7) 0.033(5) 0.052(6) -0.006(4) -0.004(5) 0.026(5)
C(46) 0.066(7) 0.032(5) 0.032(5) 0.013(4) 0.003(4) 0.002(4)

#==============================================================================

_computing_data_collection       PROCESS-AUTO
_computing_cell_refinement       PROCESS-AUTO
_computing_data_reduction        CrystalStructure
_computing_structure_solution    SIR92
_computing_structure_refinement  CRYSTALS
_computing_publication_material  'CrystalStructure 3.8'
_computing_molecular_graphics    ?

#==============================================================================

# MOLECULAR GEOMETRY

_geom_special_details            
;
ENTER SPECIAL DETAILS OF THE MOLECULAR GEOMETRY
;

loop_
_geom_bond_atom_site_label_1
_geom_bond_atom_site_label_2
_geom_bond_distance
_geom_bond_publ_flag
_geom_bond_site_symmetry_1
_geom_bond_site_symmetry_2
Fe(1) C(23) 2.095(10) yes . .
Fe(1) C(24) 2.016(7) yes . .
Fe(1) C(27) 2.048(9) yes . .
Fe(1) C(32) 2.014(11) yes . .
Fe(1) C(40) 2.040(10) yes . .
Fe(1) C(42) 2.043(11) yes . .
Fe(1) C(43) 2.073(10) yes . .
Fe(1) C(44) 2.061(8) yes . .
Fe(1) C(45) 2.099(13) yes . .
Fe(1) C(46) 2.066(12) yes . .
F(4) C(22) 1.333(12) yes . .
F(5) C(22) 1.323(11) yes . .
F(20) C(22) 1.311(12) yes . .
O(2) C(28) 1.384(12) yes . .
O(2) C(29) 1.417(10) yes . .
O(14) C(28) 1.236(13) yes . .
C(3) C(8) 1.448(10) yes . .
C(3) C(11) 1.446(9) yes . .
C(3) C(12) 1.421(10) yes . .
C(6) C(7) 1.428(10) yes . .
C(6) C(9) 1.414(10) yes . .
C(6) C(10) 1.439(9) yes . .
C(7) C(11) 1.471(9) yes . .
C(7) C(18) 1.377(10) yes . .
C(8) C(10) 1.376(9) yes . .
C(8) C(13) 1.467(10) yes . .
C(9) C(15) 1.367(10) yes . .
C(10) C(30) 1.510(10) yes . .
C(11) C(19) 1.432(10) yes . .
C(12) C(21) 1.373(11) yes . .
C(13) C(31) 1.389(11) yes . .
C(13) C(35) 1.422(11) yes . .
C(15) C(25) 1.441(12) yes . .
C(17) C(22) 1.521(12) yes . .
C(17) C(30) 1.376(11) yes . .
C(17) C(33) 1.407(13) yes . .
C(18) C(25) 1.376(12) yes . .
C(19) C(26) 1.316(11) yes . .
C(21) C(26) 1.399(11) yes . .
C(23) C(27) 1.462(13) yes . .
C(23) C(43) 1.434(18) yes . .
C(24) C(27) 1.452(14) yes . .
C(24) C(28) 1.451(11) yes . .
C(24) C(32) 1.419(14) yes . .
C(29) C(39) 1.392(12) yes . .
C(29) C(41) 1.378(11) yes . .
C(30) C(36) 1.373(11) yes . .
C(31) C(41) 1.405(12) yes . .
C(32) C(43) 1.414(14) yes . .
C(33) C(34) 1.330(15) yes . .
C(34) C(38) 1.372(14) yes . .
C(35) C(39) 1.363(12) yes . .
C(36) C(38) 1.404(12) yes . .
C(40) C(44) 1.352(19) yes . .
C(40) C(45) 1.402(16) yes . .
C(42) C(45) 1.56(2) yes . .
C(42) C(46) 1.451(19) yes . .
C(44) C(46) 1.446(15) yes . .
C(9) H(5) 0.950 no . .
C(12) H(1) 0.950 no . .
C(15) H(6) 0.950 no . .
C(18) H(7) 0.950 no . .
C(19) H(2) 0.950 no . .
C(21) H(3) 0.950 no . .
C(23) H(17) 0.950 no . .
C(25) H(8) 0.950 no . .
C(26) H(4) 0.950 no . .
C(27) H(18) 0.950 no . .
C(31) H(13) 0.950 no . .
C(32) H(25) 0.950 no . .
C(33) H(9) 0.950 no . .
C(34) H(10) 0.950 no . .
C(35) H(14) 0.950 no . .
C(36) H(11) 0.950 no . .
C(38) H(12) 0.950 no . .
C(39) H(15) 0.950 no . .
C(40) H(23) 0.950 no . .
C(41) H(16) 0.950 no . .
C(42) H(19) 0.950 no . .
C(43) H(20) 0.950 no . .
C(44) H(21) 0.950 no . .
C(45) H(24) 0.950 no . .
C(46) H(22) 0.950 no . .

loop_
_geom_angle_atom_site_label_1
_geom_angle_atom_site_label_2
_geom_angle_atom_site_label_3
_geom_angle
_geom_angle_publ_flag
_geom_angle_site_symmetry_1
_geom_angle_site_symmetry_2
_geom_angle_site_symmetry_3
C(23) Fe(1) C(24) 68.9(3) yes . . .
C(23) Fe(1) C(27) 41.3(3) yes . . .
C(23) Fe(1) C(32) 68.2(4) yes . . .
C(23) Fe(1) C(40) 109.0(4) yes . . .
C(23) Fe(1) C(42) 162.0(5) yes . . .
C(23) Fe(1) C(43) 40.2(5) yes . . .
C(23) Fe(1) C(44) 122.5(4) yes . . .
C(23) Fe(1) C(45) 123.2(5) yes . . .
C(23) Fe(1) C(46) 156.1(4) yes . . .
C(24) Fe(1) C(27) 41.9(4) yes . . .
C(24) Fe(1) C(32) 41.2(4) yes . . .
C(24) Fe(1) C(40) 158.5(4) yes . . .
C(24) Fe(1) C(42) 105.5(4) yes . . .
C(24) Fe(1) C(43) 68.7(3) yes . . .
C(24) Fe(1) C(44) 160.7(4) yes . . .
C(24) Fe(1) C(45) 122.4(4) yes . . .
C(24) Fe(1) C(46) 122.3(4) yes . . .
C(27) Fe(1) C(32) 70.0(4) yes . . .
C(27) Fe(1) C(40) 122.2(4) yes . . .
C(27) Fe(1) C(42) 123.3(4) yes . . .
C(27) Fe(1) C(43) 69.4(4) yes . . .
C(27) Fe(1) C(44) 156.8(4) yes . . .
C(27) Fe(1) C(45) 106.2(4) yes . . .
C(27) Fe(1) C(46) 160.4(4) yes . . .
C(32) Fe(1) C(40) 159.5(4) yes . . .
C(32) Fe(1) C(42) 119.5(5) yes . . .
C(32) Fe(1) C(43) 40.4(4) yes . . .
C(32) Fe(1) C(44) 124.5(4) yes . . .
C(32) Fe(1) C(45) 159.1(4) yes . . .
C(32) Fe(1) C(46) 105.3(4) yes . . .
C(40) Fe(1) C(42) 69.6(4) yes . . .
C(40) Fe(1) C(43) 124.4(4) yes . . .
C(40) Fe(1) C(44) 38.5(5) yes . . .
C(40) Fe(1) C(45) 39.6(4) yes . . .
C(40) Fe(1) C(46) 68.6(5) yes . . .
C(42) Fe(1) C(43) 155.3(5) yes . . .
C(42) Fe(1) C(44) 68.3(4) yes . . .
C(42) Fe(1) C(45) 44.3(5) yes . . .
C(42) Fe(1) C(46) 41.3(5) yes . . .
C(43) Fe(1) C(44) 108.8(4) yes . . .
C(43) Fe(1) C(45) 159.1(4) yes . . .
C(43) Fe(1) C(46) 120.1(4) yes . . .
C(44) Fe(1) C(45) 66.8(4) yes . . .
C(44) Fe(1) C(46) 41.0(4) yes . . .
C(45) Fe(1) C(46) 71.1(5) yes . . .
C(28) O(2) C(29) 116.1(7) yes . . .
C(8) C(3) C(11) 120.2(6) yes . . .
C(8) C(3) C(12) 121.1(6) yes . . .
C(11) C(3) C(12) 118.7(6) yes . . .
C(7) C(6) C(9) 117.9(6) yes . . .
C(7) C(6) C(10) 120.4(6) yes . . .
C(9) C(6) C(10) 121.7(6) yes . . .
C(6) C(7) C(11) 118.2(6) yes . . .
C(6) C(7) C(18) 120.0(6) yes . . .
C(11) C(7) C(18) 121.8(6) yes . . .
C(3) C(8) C(10) 119.5(6) yes . . .
C(3) C(8) C(13) 119.4(6) yes . . .
C(10) C(8) C(13) 120.9(6) yes . . .
C(6) C(9) C(15) 122.2(7) yes . . .
C(6) C(10) C(8) 122.3(6) yes . . .
C(6) C(10) C(30) 118.5(6) yes . . .
C(8) C(10) C(30) 119.2(6) yes . . .
C(3) C(11) C(7) 119.4(6) yes . . .
C(3) C(11) C(19) 118.0(6) yes . . .
C(7) C(11) C(19) 122.6(6) yes . . .
C(3) C(12) C(21) 119.9(6) yes . . .
C(8) C(13) C(31) 119.0(6) yes . . .
C(8) C(13) C(35) 122.6(7) yes . . .
C(31) C(13) C(35) 118.2(7) yes . . .
C(9) C(15) C(25) 118.5(7) yes . . .
C(22) C(17) C(30) 123.6(7) yes . . .
C(22) C(17) C(33) 117.1(7) yes . . .
C(30) C(17) C(33) 119.2(7) yes . . .
C(7) C(18) C(25) 121.5(7) yes . . .
C(11) C(19) C(26) 120.6(7) yes . . .
C(12) C(21) C(26) 120.0(7) yes . . .
F(4) C(22) F(5) 102.5(7) yes . . .
F(4) C(22) F(20) 108.6(8) yes . . .
F(4) C(22) C(17) 112.6(7) yes . . .
F(5) C(22) F(20) 104.5(8) yes . . .
F(5) C(22) C(17) 113.8(7) yes . . .
F(20) C(22) C(17) 113.9(7) yes . . .
Fe(1) C(23) C(27) 67.6(5) yes . . .
Fe(1) C(23) C(43) 69.0(6) yes . . .
C(27) C(23) C(43) 108.1(9) yes . . .
Fe(1) C(24) C(27) 70.2(4) yes . . .
Fe(1) C(24) C(28) 118.8(5) yes . . .
Fe(1) C(24) C(32) 69.3(5) yes . . .
C(27) C(24) C(28) 124.9(9) yes . . .
C(27) C(24) C(32) 108.5(7) yes . . .
C(28) C(24) C(32) 125.9(9) yes . . .
C(15) C(25) C(18) 119.8(7) yes . . .
C(19) C(26) C(21) 122.7(8) yes . . .
Fe(1) C(27) C(23) 71.1(5) yes . . .
Fe(1) C(27) C(24) 67.9(4) yes . . .
C(23) C(27) C(24) 106.0(9) yes . . .
O(2) C(28) O(14) 124.7(8) yes . . .
O(2) C(28) C(24) 110.6(8) yes . . .
O(14) C(28) C(24) 124.7(9) yes . . .
O(2) C(29) C(39) 118.6(7) yes . . .
O(2) C(29) C(41) 119.2(7) yes . . .
C(39) C(29) C(41) 121.8(7) yes . . .
C(10) C(30) C(17) 123.7(6) yes . . .
C(10) C(30) C(36) 117.0(6) yes . . .
C(17) C(30) C(36) 119.2(7) yes . . .
C(13) C(31) C(41) 120.1(7) yes . . .
Fe(1) C(32) C(24) 69.5(5) yes . . .
Fe(1) C(32) C(43) 72.0(6) yes . . .
C(24) C(32) C(43) 109.2(9) yes . . .
C(17) C(33) C(34) 121.1(8) yes . . .
C(33) C(34) C(38) 120.8(9) yes . . .
C(13) C(35) C(39) 122.1(8) yes . . .
C(30) C(36) C(38) 120.7(8) yes . . .
C(34) C(38) C(36) 118.9(8) yes . . .
C(29) C(39) C(35) 118.4(7) yes . . .
Fe(1) C(40) C(44) 71.6(6) yes . . .
Fe(1) C(40) C(45) 72.5(6) yes . . .
C(44) C(40) C(45) 112.5(11) yes . . .
C(29) C(41) C(31) 119.4(8) yes . . .
Fe(1) C(42) C(45) 69.8(6) yes . . .
Fe(1) C(42) C(46) 70.2(6) yes . . .
C(45) C(42) C(46) 106.9(9) yes . . .
Fe(1) C(43) C(23) 70.7(5) yes . . .
Fe(1) C(43) C(32) 67.5(6) yes . . .
C(23) C(43) C(32) 108.2(9) yes . . .
Fe(1) C(44) C(40) 69.9(5) yes . . .
Fe(1) C(44) C(46) 69.7(5) yes . . .
C(40) C(44) C(46) 111.5(9) yes . . .
Fe(1) C(45) C(40) 68.0(6) yes . . .
Fe(1) C(45) C(42) 65.9(6) yes . . .
C(40) C(45) C(42) 103.5(11) yes . . .
Fe(1) C(46) C(42) 68.5(6) yes . . .
Fe(1) C(46) C(44) 69.3(6) yes . . .
C(42) C(46) C(44) 105.3(11) yes . . .
C(6) C(9) H(5) 119.4 no . . .
C(15) C(9) H(5) 118.4 no . . .
C(3) C(12) H(1) 119.0 no . . .
C(21) C(12) H(1) 121.0 no . . .
C(9) C(15) H(6) 121.6 no . . .
C(25) C(15) H(6) 119.9 no . . .
C(7) C(18) H(7) 120.2 no . . .
C(25) C(18) H(7) 118.2 no . . .
C(11) C(19) H(2) 118.9 no . . .
C(26) C(19) H(2) 120.5 no . . .
C(12) C(21) H(3) 118.2 no . . .
C(26) C(21) H(3) 121.8 no . . .
Fe(1) C(23) H(17) 126.5 no . . .
C(27) C(23) H(17) 124.9 no . . .
C(43) C(23) H(17) 126.9 no . . .
C(15) C(25) H(8) 119.5 no . . .
C(18) C(25) H(8) 120.7 no . . .
C(19) C(26) H(4) 119.0 no . . .
C(21) C(26) H(4) 118.3 no . . .
Fe(1) C(27) H(18) 126.1 no . . .
C(23) C(27) H(18) 128.8 no . . .
C(24) C(27) H(18) 125.3 no . . .
C(13) C(31) H(13) 120.7 no . . .
C(41) C(31) H(13) 119.2 no . . .
Fe(1) C(32) H(25) 126.3 no . . .
C(24) C(32) H(25) 125.5 no . . .
C(43) C(32) H(25) 125.3 no . . .
C(17) C(33) H(9) 117.8 no . . .
C(34) C(33) H(9) 121.1 no . . .
C(33) C(34) H(10) 120.7 no . . .
C(38) C(34) H(10) 118.5 no . . .
C(13) C(35) H(14) 119.6 no . . .
C(39) C(35) H(14) 118.3 no . . .
C(30) C(36) H(11) 120.0 no . . .
C(38) C(36) H(11) 119.3 no . . .
C(34) C(38) H(12) 122.0 no . . .
C(36) C(38) H(12) 119.1 no . . .
C(29) C(39) H(15) 120.4 no . . .
C(35) C(39) H(15) 121.0 no . . .
Fe(1) C(40) H(23) 127.5 no . . .
C(44) C(40) H(23) 127.0 no . . .
C(45) C(40) H(23) 120.4 no . . .
C(29) C(41) H(16) 120.2 no . . .
C(31) C(41) H(16) 120.3 no . . .
Fe(1) C(42) H(19) 127.8 no . . .
C(45) C(42) H(19) 126.2 no . . .
C(46) C(42) H(19) 126.8 no . . .
Fe(1) C(43) H(20) 125.1 no . . .
C(23) C(43) H(20) 125.3 no . . .
C(32) C(43) H(20) 126.5 no . . .
Fe(1) C(44) H(21) 126.0 no . . .
C(40) C(44) H(21) 126.7 no . . .
C(46) C(44) H(21) 121.8 no . . .
Fe(1) C(45) H(24) 127.9 no . . .
C(40) C(45) H(24) 132.0 no . . .
C(42) C(45) H(24) 124.4 no . . .
Fe(1) C(46) H(22) 128.0 no . . .
C(42) C(46) H(22) 124.3 no . . .
C(44) C(46) H(22) 130.4 no . . .

loop_
_geom_torsion_atom_site_label_1
_geom_torsion_atom_site_label_2
_geom_torsion_atom_site_label_3
_geom_torsion_atom_site_label_4
_geom_torsion
_geom_torsion_publ_flag
_geom_torsion_site_symmetry_1
_geom_torsion_site_symmetry_2
_geom_torsion_site_symmetry_3
_geom_torsion_site_symmetry_4
C(23) Fe(1) C(24) C(27) -39.1(6) ? . . . .
C(23) Fe(1) C(24) C(28) -158.9(9) ? . . . .
C(23) Fe(1) C(24) C(32) 80.7(6) ? . . . .
C(24) Fe(1) C(23) C(27) 39.6(6) ? . . . .
C(24) Fe(1) C(23) C(43) -81.6(6) ? . . . .
C(23) Fe(1) C(27) C(24) 116.9(8) ? . . . .
C(27) Fe(1) C(23) C(43) -121.2(8) ? . . . .
C(23) Fe(1) C(32) C(24) -82.3(6) ? . . . .
C(23) Fe(1) C(32) C(43) 37.0(6) ? . . . .
C(32) Fe(1) C(23) C(27) 84.1(6) ? . . . .
C(32) Fe(1) C(23) C(43) -37.2(5) ? . . . .
C(23) Fe(1) C(40) C(44) -118.6(7) ? . . . .
C(23) Fe(1) C(40) C(45) 119.5(7) ? . . . .
C(40) Fe(1) C(23) C(27) -117.6(6) ? . . . .
C(40) Fe(1) C(23) C(43) 121.2(6) ? . . . .
C(23) Fe(1) C(42) C(45) -51.7(17) ? . . . .
C(23) Fe(1) C(42) C(46) -169.3(13) ? . . . .
C(42) Fe(1) C(23) C(27) -35.2(18) ? . . . .
C(42) Fe(1) C(23) C(43) -156.4(14) ? . . . .
C(23) Fe(1) C(43) C(32) -120.1(8) ? . . . .
C(43) Fe(1) C(23) C(27) 121.2(8) ? . . . .
C(23) Fe(1) C(44) C(40) 79.6(8) ? . . . .
C(23) Fe(1) C(44) C(46) -156.9(7) ? . . . .
C(44) Fe(1) C(23) C(27) -158.0(6) ? . . . .
C(44) Fe(1) C(23) C(43) 80.8(7) ? . . . .
C(23) Fe(1) C(45) C(40) -79.6(8) ? . . . .
C(23) Fe(1) C(45) C(42) 163.2(6) ? . . . .
C(45) Fe(1) C(23) C(27) -76.1(7) ? . . . .
C(45) Fe(1) C(23) C(43) 162.7(5) ? . . . .
C(23) Fe(1) C(46) C(42) 171.9(11) ? . . . .
C(23) Fe(1) C(46) C(44) 54.9(15) ? . . . .
C(46) Fe(1) C(23) C(27) 162.5(10) ? . . . .
C(46) Fe(1) C(23) C(43) 41.3(14) ? . . . .
C(24) Fe(1) C(27) C(23) -116.9(8) ? . . . .
C(27) Fe(1) C(24) C(28) -119.7(10) ? . . . .
C(27) Fe(1) C(24) C(32) 119.8(7) ? . . . .
C(24) Fe(1) C(32) C(43) 119.3(8) ? . . . .
C(32) Fe(1) C(24) C(27) -119.8(7) ? . . . .
C(32) Fe(1) C(24) C(28) 120.5(11) ? . . . .
C(24) Fe(1) C(40) C(44) 160.9(10) ? . . . .
C(24) Fe(1) C(40) C(45) 39.0(15) ? . . . .
C(40) Fe(1) C(24) C(27) 49.3(13) ? . . . .
C(40) Fe(1) C(24) C(28) -70.5(15) ? . . . .
C(40) Fe(1) C(24) C(32) 169.1(11) ? . . . .
C(24) Fe(1) C(42) C(45) -120.8(6) ? . . . .
C(24) Fe(1) C(42) C(46) 121.6(7) ? . . . .
C(42) Fe(1) C(24) C(27) 122.9(6) ? . . . .
C(42) Fe(1) C(24) C(28) 3.2(10) ? . . . .
C(42) Fe(1) C(24) C(32) -117.3(7) ? . . . .
C(24) Fe(1) C(43) C(23) 82.1(6) ? . . . .
C(24) Fe(1) C(43) C(32) -38.1(6) ? . . . .
C(43) Fe(1) C(24) C(27) -82.4(6) ? . . . .
C(43) Fe(1) C(24) C(28) 157.8(9) ? . . . .
C(43) Fe(1) C(24) C(32) 37.4(6) ? . . . .
C(24) Fe(1) C(44) C(40) -158.8(10) ? . . . .
C(24) Fe(1) C(44) C(46) -35.3(15) ? . . . .
C(44) Fe(1) C(24) C(27) -168.7(11) ? . . . .
C(44) Fe(1) C(24) C(28) 71.5(15) ? . . . .
C(44) Fe(1) C(24) C(32) -49.0(13) ? . . . .
C(24) Fe(1) C(45) C(40) -164.2(7) ? . . . .
C(24) Fe(1) C(45) C(42) 78.6(7) ? . . . .
C(45) Fe(1) C(24) C(27) 77.6(6) ? . . . .
C(45) Fe(1) C(24) C(28) -42.1(10) ? . . . .
C(45) Fe(1) C(24) C(32) -162.6(6) ? . . . .
C(24) Fe(1) C(46) C(42) -76.1(8) ? . . . .
C(24) Fe(1) C(46) C(44) 166.9(6) ? . . . .
C(46) Fe(1) C(24) C(27) 164.6(6) ? . . . .
C(46) Fe(1) C(24) C(28) 44.9(10) ? . . . .
C(46) Fe(1) C(24) C(32) -75.6(7) ? . . . .
C(27) Fe(1) C(32) C(24) -38.0(5) ? . . . .
C(27) Fe(1) C(32) C(43) 81.3(6) ? . . . .
C(32) Fe(1) C(27) C(23) -79.4(7) ? . . . .
C(32) Fe(1) C(27) C(24) 37.5(5) ? . . . .
C(27) Fe(1) C(40) C(44) -162.4(6) ? . . . .
C(27) Fe(1) C(40) C(45) 75.7(8) ? . . . .
C(40) Fe(1) C(27) C(23) 82.2(7) ? . . . .
C(40) Fe(1) C(27) C(24) -160.8(5) ? . . . .
C(27) Fe(1) C(42) C(45) -78.7(7) ? . . . .
C(27) Fe(1) C(42) C(46) 163.7(6) ? . . . .
C(42) Fe(1) C(27) C(23) 167.7(7) ? . . . .
C(42) Fe(1) C(27) C(24) -75.3(7) ? . . . .
C(27) Fe(1) C(43) C(23) 37.1(5) ? . . . .
C(27) Fe(1) C(43) C(32) -83.0(6) ? . . . .
C(43) Fe(1) C(27) C(23) -36.2(6) ? . . . .
C(43) Fe(1) C(27) C(24) 80.7(5) ? . . . .
C(27) Fe(1) C(44) C(40) 40.6(13) ? . . . .
C(27) Fe(1) C(44) C(46) 164.1(10) ? . . . .
C(44) Fe(1) C(27) C(23) 53.6(13) ? . . . .
C(44) Fe(1) C(27) C(24) 170.5(10) ? . . . .
C(27) Fe(1) C(45) C(40) -121.4(7) ? . . . .
C(27) Fe(1) C(45) C(42) 121.4(6) ? . . . .
C(45) Fe(1) C(27) C(23) 122.2(7) ? . . . .
C(45) Fe(1) C(27) C(24) -120.8(6) ? . . . .
C(27) Fe(1) C(46) C(42) -44.3(17) ? . . . .
C(27) Fe(1) C(46) C(44) -161.3(12) ? . . . .
C(46) Fe(1) C(27) C(23) -158.7(13) ? . . . .
C(46) Fe(1) C(27) C(24) -41.8(16) ? . . . .
C(32) Fe(1) C(40) C(44) -40.1(16) ? . . . .
C(32) Fe(1) C(40) C(45) -162.0(12) ? . . . .
C(40) Fe(1) C(32) C(24) -168.5(12) ? . . . .
C(40) Fe(1) C(32) C(43) -49.2(16) ? . . . .
C(32) Fe(1) C(42) C(45) -163.1(6) ? . . . .
C(32) Fe(1) C(42) C(46) 79.3(7) ? . . . .
C(42) Fe(1) C(32) C(24) 79.6(7) ? . . . .
C(42) Fe(1) C(32) C(43) -161.0(6) ? . . . .
C(32) Fe(1) C(43) C(23) 120.1(8) ? . . . .
C(43) Fe(1) C(32) C(24) -119.3(8) ? . . . .
C(32) Fe(1) C(44) C(40) 164.1(6) ? . . . .
C(32) Fe(1) C(44) C(46) -72.4(8) ? . . . .
C(44) Fe(1) C(32) C(24) 162.4(5) ? . . . .
C(44) Fe(1) C(32) C(43) -78.3(7) ? . . . .
C(32) Fe(1) C(45) C(40) 162.4(12) ? . . . .
C(32) Fe(1) C(45) C(42) 45.2(15) ? . . . .
C(45) Fe(1) C(32) C(24) 45.0(15) ? . . . .
C(45) Fe(1) C(32) C(43) 164.3(12) ? . . . .
C(32) Fe(1) C(46) C(42) -117.5(7) ? . . . .
C(32) Fe(1) C(46) C(44) 125.5(7) ? . . . .
C(46) Fe(1) C(32) C(24) 121.9(6) ? . . . .
C(46) Fe(1) C(32) C(43) -118.7(6) ? . . . .
C(40) Fe(1) C(42) C(45) 37.2(6) ? . . . .
C(40) Fe(1) C(42) C(46) -80.4(7) ? . . . .
C(42) Fe(1) C(40) C(44) 80.4(8) ? . . . .
C(42) Fe(1) C(40) C(45) -41.5(8) ? . . . .
C(40) Fe(1) C(43) C(23) -78.6(7) ? . . . .
C(40) Fe(1) C(43) C(32) 161.3(6) ? . . . .
C(43) Fe(1) C(40) C(44) -76.6(8) ? . . . .
C(43) Fe(1) C(40) C(45) 161.5(7) ? . . . .
C(40) Fe(1) C(44) C(46) 123.5(10) ? . . . .
C(44) Fe(1) C(40) C(45) -121.9(10) ? . . . .
C(40) Fe(1) C(45) C(42) -117.2(10) ? . . . .
C(45) Fe(1) C(40) C(44) 121.9(10) ? . . . .
C(40) Fe(1) C(46) C(42) 83.1(8) ? . . . .
C(40) Fe(1) C(46) C(44) -33.9(7) ? . . . .
C(46) Fe(1) C(40) C(44) 36.0(6) ? . . . .
C(46) Fe(1) C(40) C(45) -85.9(8) ? . . . .
C(42) Fe(1) C(43) C(23) 162.8(9) ? . . . .
C(42) Fe(1) C(43) C(32) 42.7(12) ? . . . .
C(43) Fe(1) C(42) C(45) 166.6(8) ? . . . .
C(43) Fe(1) C(42) C(46) 49.0(12) ? . . . .
C(42) Fe(1) C(44) C(40) -84.2(8) ? . . . .
C(42) Fe(1) C(44) C(46) 39.3(8) ? . . . .
C(44) Fe(1) C(42) C(45) 78.5(6) ? . . . .
C(44) Fe(1) C(42) C(46) -39.0(7) ? . . . .
C(42) Fe(1) C(45) C(40) 117.2(10) ? . . . .
C(45) Fe(1) C(42) C(46) -117.6(9) ? . . . .
C(42) Fe(1) C(46) C(44) -117.0(10) ? . . . .
C(46) Fe(1) C(42) C(45) 117.6(9) ? . . . .
C(43) Fe(1) C(44) C(40) 122.0(7) ? . . . .
C(43) Fe(1) C(44) C(46) -114.5(7) ? . . . .
C(44) Fe(1) C(43) C(23) -118.4(6) ? . . . .
C(44) Fe(1) C(43) C(32) 121.5(6) ? . . . .
C(43) Fe(1) C(45) C(40) -47.1(15) ? . . . .
C(43) Fe(1) C(45) C(42) -164.3(10) ? . . . .
C(45) Fe(1) C(43) C(23) -44.2(13) ? . . . .
C(45) Fe(1) C(43) C(32) -164.3(11) ? . . . .
C(43) Fe(1) C(46) C(42) -158.6(7) ? . . . .
C(43) Fe(1) C(46) C(44) 84.4(7) ? . . . .
C(46) Fe(1) C(43) C(23) -162.0(6) ? . . . .
C(46) Fe(1) C(43) C(32) 77.9(7) ? . . . .
C(44) Fe(1) C(45) C(40) 35.1(7) ? . . . .
C(44) Fe(1) C(45) C(42) -82.1(7) ? . . . .
C(45) Fe(1) C(44) C(40) -36.0(7) ? . . . .
C(45) Fe(1) C(44) C(46) 87.5(7) ? . . . .
C(44) Fe(1) C(46) C(42) 117.0(10) ? . . . .
C(46) Fe(1) C(44) C(40) -123.5(10) ? . . . .
C(45) Fe(1) C(46) C(42) 40.9(7) ? . . . .
C(45) Fe(1) C(46) C(44) -76.1(7) ? . . . .
C(46) Fe(1) C(45) C(40) 79.0(7) ? . . . .
C(46) Fe(1) C(45) C(42) -38.2(6) ? . . . .
C(28) O(2) C(29) C(39) 99.4(10) ? . . . .
C(28) O(2) C(29) C(41) -87.0(10) ? . . . .
C(29) O(2) C(28) O(14) -1.5(12) ? . . . .
C(29) O(2) C(28) C(24) 178.3(6) ? . . . .
C(8) C(3) C(11) C(7) -1.8(10) ? . . . .
C(8) C(3) C(11) C(19) 178.5(6) ? . . . .
C(11) C(3) C(8) C(10) 2.5(10) ? . . . .
C(11) C(3) C(8) C(13) -172.3(6) ? . . . .
C(8) C(3) C(12) C(21) -178.9(7) ? . . . .
C(12) C(3) C(8) C(10) -179.7(7) ? . . . .
C(12) C(3) C(8) C(13) 5.5(10) ? . . . .
C(11) C(3) C(12) C(21) -1.1(11) ? . . . .
C(12) C(3) C(11) C(7) -179.6(6) ? . . . .
C(12) C(3) C(11) C(19) 0.7(10) ? . . . .
C(7) C(6) C(9) C(15) 0.9(11) ? . . . .
C(9) C(6) C(7) C(11) 179.7(6) ? . . . .
C(9) C(6) C(7) C(18) 2.3(10) ? . . . .
C(7) C(6) C(10) C(8) -2.0(10) ? . . . .
C(7) C(6) C(10) C(30) 178.6(6) ? . . . .
C(10) C(6) C(7) C(11) 2.6(10) ? . . . .
C(10) C(6) C(7) C(18) -174.8(7) ? . . . .
C(9) C(6) C(10) C(8) -178.9(7) ? . . . .
C(9) C(6) C(10) C(30) 1.6(10) ? . . . .
C(10) C(6) C(9) C(15) 177.9(7) ? . . . .
C(6) C(7) C(11) C(3) -0.7(10) ? . . . .
C(6) C(7) C(11) C(19) 178.9(6) ? . . . .
C(6) C(7) C(18) C(25) -2.1(12) ? . . . .
C(11) C(7) C(18) C(25) -179.4(7) ? . . . .
C(18) C(7) C(11) C(3) 176.6(7) ? . . . .
C(18) C(7) C(11) C(19) -3.8(11) ? . . . .
C(3) C(8) C(10) C(6) -0.7(10) ? . . . .
C(3) C(8) C(10) C(30) 178.8(6) ? . . . .
C(3) C(8) C(13) C(31) 102.8(8) ? . . . .
C(3) C(8) C(13) C(35) -82.0(10) ? . . . .
C(10) C(8) C(13) C(31) -72.0(10) ? . . . .
C(10) C(8) C(13) C(35) 103.3(9) ? . . . .
C(13) C(8) C(10) C(6) 174.1(6) ? . . . .
C(13) C(8) C(10) C(30) -6.5(10) ? . . . .
C(6) C(9) C(15) C(25) -4.1(11) ? . . . .
C(6) C(10) C(30) C(17) 89.5(8) ? . . . .
C(6) C(10) C(30) C(36) -87.4(8) ? . . . .
C(8) C(10) C(30) C(17) -90.0(9) ? . . . .
C(8) C(10) C(30) C(36) 93.1(8) ? . . . .
C(3) C(11) C(19) C(26) 1.5(11) ? . . . .
C(7) C(11) C(19) C(26) -178.2(7) ? . . . .
C(3) C(12) C(21) C(26) -0.6(12) ? . . . .
C(8) C(13) C(31) C(41) 175.6(7) ? . . . .
C(8) C(13) C(35) C(39) -176.8(9) ? . . . .
C(31) C(13) C(35) C(39) -1.5(14) ? . . . .
C(35) C(13) C(31) C(41) 0.1(10) ? . . . .
C(9) C(15) C(25) C(18) 4.2(12) ? . . . .
C(22) C(17) C(30) C(10) 3.8(11) ? . . . .
C(22) C(17) C(30) C(36) -179.4(7) ? . . . .
C(30) C(17) C(22) F(4) -154.4(7) ? . . . .
C(30) C(17) C(22) F(5) -38.2(11) ? . . . .
C(30) C(17) C(22) F(20) 81.4(10) ? . . . .
C(22) C(17) C(33) C(34) 176.4(8) ? . . . .
C(33) C(17) C(22) F(4) 26.2(10) ? . . . .
C(33) C(17) C(22) F(5) 142.3(8) ? . . . .
C(33) C(17) C(22) F(20) -98.1(10) ? . . . .
C(30) C(17) C(33) C(34) -3.1(12) ? . . . .
C(33) C(17) C(30) C(10) -176.7(6) ? . . . .
C(33) C(17) C(30) C(36) 0.1(8) ? . . . .
C(7) C(18) C(25) C(15) -1.1(13) ? . . . .
C(11) C(19) C(26) C(21) -3.3(13) ? . . . .
C(12) C(21) C(26) C(19) 2.9(13) ? . . . .
Fe(1) C(23) C(27) C(24) -59.2(5) ? . . . .
Fe(1) C(23) C(43) C(32) 57.3(7) ? . . . .
C(27) C(23) C(43) Fe(1) -56.3(6) ? . . . .
C(27) C(23) C(43) C(32) 1.0(11) ? . . . .
C(43) C(23) C(27) Fe(1) 57.2(6) ? . . . .
C(43) C(23) C(27) C(24) -2.1(10) ? . . . .
Fe(1) C(24) C(27) C(23) 61.3(6) ? . . . .
Fe(1) C(24) C(28) O(2) 87.0(8) ? . . . .
Fe(1) C(24) C(28) O(14) -93.2(10) ? . . . .
Fe(1) C(24) C(32) C(43) -61.4(7) ? . . . .
C(27) C(24) C(28) O(2) 1.9(11) ? . . . .
C(27) C(24) C(28) O(14) -178.3(8) ? . . . .
C(28) C(24) C(27) Fe(1) 112.0(8) ? . . . .
C(28) C(24) C(27) C(23) 173.3(7) ? . . . .
C(27) C(24) C(32) Fe(1) 59.5(6) ? . . . .
C(27) C(24) C(32) C(43) -1.9(10) ? . . . .
C(32) C(24) C(27) Fe(1) -58.9(6) ? . . . .
C(32) C(24) C(27) C(23) 2.4(10) ? . . . .
C(28) C(24) C(32) Fe(1) -111.3(8) ? . . . .
C(28) C(24) C(32) C(43) -172.7(8) ? . . . .
C(32) C(24) C(28) O(2) 171.2(8) ? . . . .
C(32) C(24) C(28) O(14) -9.0(14) ? . . . .
O(2) C(29) C(39) C(35) 172.1(9) ? . . . .
O(2) C(29) C(41) C(31) -173.4(8) ? . . . .
C(39) C(29) C(41) C(31) 0.1(13) ? . . . .
C(41) C(29) C(39) C(35) -1.4(15) ? . . . .
C(10) C(30) C(36) C(38) 178.8(6) ? . . . .
C(17) C(30) C(36) C(38) 1.8(11) ? . . . .
C(13) C(31) C(41) C(29) 0.6(10) ? . . . .
Fe(1) C(32) C(43) C(23) -59.2(6) ? . . . .
C(24) C(32) C(43) Fe(1) 59.8(6) ? . . . .
C(24) C(32) C(43) C(23) 0.6(11) ? . . . .
C(17) C(33) C(34) C(38) 4.2(13) ? . . . .
C(33) C(34) C(38) C(36) -2.2(13) ? . . . .
C(13) C(35) C(39) C(29) 2.1(16) ? . . . .
C(30) C(36) C(38) C(34) -0.8(12) ? . . . .
Fe(1) C(40) C(44) C(46) -57.2(7) ? . . . .
Fe(1) C(40) C(45) C(42) 56.6(7) ? . . . .
C(44) C(40) C(45) Fe(1) -60.7(8) ? . . . .
C(44) C(40) C(45) C(42) -4.0(12) ? . . . .
C(45) C(40) C(44) Fe(1) 61.2(8) ? . . . .
C(45) C(40) C(44) C(46) 4.0(13) ? . . . .
Fe(1) C(42) C(45) C(40) -58.0(7) ? . . . .
Fe(1) C(42) C(46) C(44) 59.8(7) ? . . . .
C(45) C(42) C(46) Fe(1) -60.4(7) ? . . . .
C(45) C(42) C(46) C(44) -0.5(11) ? . . . .
C(46) C(42) C(45) Fe(1) 60.7(7) ? . . . .
C(46) C(42) C(45) C(40) 2.7(12) ? . . . .
Fe(1) C(44) C(46) C(42) -59.3(7) ? . . . .
C(40) C(44) C(46) Fe(1) 57.4(7) ? . . . .
C(40) C(44) C(46) C(42) -1.9(12) ? . . . .

loop_
_geom_contact_atom_site_label_1
_geom_contact_atom_site_label_2
_geom_contact_distance
_geom_contact_publ_flag
_geom_contact_site_symmetry_1
_geom_contact_site_symmetry_2
F(4) O(14) 3.133(10) ? . 1_445
F(4) C(21) 3.522(10) ? . 1_455
F(4) C(24) 3.526(12) ? . 1_445
F(4) C(28) 3.560(12) ? . 1_445
F(4) C(32) 3.181(13) ? . 1_445
F(5) C(21) 3.584(10) ? . 1_455
F(5) C(34) 3.465(12) ? . 1_545
F(5) C(38) 3.298(10) ? . 1_545
O(14) F(4) 3.133(10) ? . 1_665
O(14) C(33) 3.549(13) ? . 1_655
O(14) C(34) 3.274(13) ? . 1_655
C(9) C(21) 3.554(11) ? . 1_455
C(15) C(26) 3.566(12) ? . 1_455
C(21) F(4) 3.522(10) ? . 1_655
C(21) F(5) 3.584(10) ? . 1_655
C(21) C(9) 3.554(11) ? . 1_655
C(24) F(4) 3.526(12) ? . 1_665
C(26) C(15) 3.566(12) ? . 1_655
C(28) F(4) 3.560(12) ? . 1_665
C(32) F(4) 3.181(13) ? . 1_665
C(33) O(14) 3.549(13) ? . 1_455
C(34) F(5) 3.465(12) ? . 1_565
C(34) O(14) 3.274(13) ? . 1_455
C(38) F(5) 3.298(10) ? . 1_565
F(4) H(1) 3.067 ? . 1_455
F(4) H(3) 2.846 ? . 1_455
F(4) H(25) 2.714 ? . 1_445
F(5) H(3) 2.639 ? . 1_455
F(5) H(10) 3.192 ? . 1_545
F(5) H(12) 2.924 ? . 1_545
F(20) H(18) 3.582 ? . 1_545
F(20) H(25) 3.544 ? . 1_445
O(2) H(14) 3.559 ? . 1_565
O(14) H(9) 3.151 ? . 1_655
O(14) H(10) 2.541 ? . 1_655
C(3) H(7) 3.049 ? . 2_555
C(3) H(8) 3.039 ? . 2_555
C(3) H(16) 2.797 ? . 1_545
C(6) H(2) 2.870 ? . 2_555
C(6) H(7) 3.302 ? . 2_555
C(6) H(12) 3.346 ? . 1_545
C(7) H(2) 3.009 ? . 2_555
C(7) H(7) 3.014 ? . 2_555
C(7) H(12) 3.523 ? . 1_545
C(8) H(7) 3.307 ? . 2_555
C(9) H(2) 3.019 ? . 2_555
C(9) H(3) 3.050 ? . 1_455
C(9) H(4) 3.183 ? . 2_555
C(9) H(6) 3.540 ? . 2_455
C(9) H(12) 3.044 ? . 1_545
C(10) H(2) 3.499 ? . 2_555
C(10) H(7) 3.414 ? . 2_555
C(11) H(7) 2.873 ? . 2_555
C(11) H(8) 3.403 ? . 2_555
C(11) H(13) 3.343 ? . 1_545
C(11) H(16) 2.923 ? . 1_545
C(12) H(8) 2.816 ? . 2_555
C(12) H(16) 2.869 ? . 1_545
C(15) H(2) 3.312 ? . 2_555
C(15) H(3) 3.487 ? . 1_455
C(15) H(4) 3.149 ? . 1_455
C(15) H(4) 2.938 ? . 2_555
C(15) H(5) 3.489 ? . 2_445
C(15) H(12) 2.936 ? . 1_545
C(17) H(3) 3.369 ? . 1_455
C(18) H(2) 3.235 ? . 2_555
C(18) H(11) 3.177 ? . 1_545
C(18) H(12) 3.470 ? . 1_545
C(18) H(13) 3.498 ? . 2_545
C(19) H(7) 3.559 ? . 2_555
C(19) H(8) 3.539 ? . 2_555
C(19) H(11) 3.487 ? . 2_545
C(19) H(13) 2.948 ? . 1_545
C(19) H(16) 3.087 ? . 1_545
C(21) H(5) 3.097 ? . 1_655
C(21) H(6) 3.485 ? . 1_655
C(21) H(8) 3.000 ? . 2_555
C(21) H(10) 2.960 ? . 1_645
C(21) H(12) 3.171 ? . 1_645
C(21) H(16) 3.025 ? . 1_545
C(22) H(3) 3.091 ? . 1_455
C(23) H(15) 3.036 ? . 1_565
C(23) H(19) 3.124 ? . 1_565
C(23) H(21) 3.399 ? . 2_656
C(24) H(14) 3.420 ? . 1_565
C(25) H(2) 3.372 ? . 2_555
C(25) H(4) 3.481 ? . 2_555
C(25) H(5) 3.462 ? . 2_445
C(25) H(11) 3.392 ? . 1_545
C(25) H(12) 3.206 ? . 1_545
C(26) H(6) 3.071 ? . 1_655
C(26) H(8) 3.379 ? . 2_555
C(26) H(10) 3.197 ? . 1_645
C(26) H(12) 3.111 ? . 1_645
C(26) H(13) 3.411 ? . 1_545
C(26) H(16) 3.096 ? . 1_545
C(27) H(14) 3.078 ? . 1_565
C(27) H(15) 3.200 ? . 1_565
C(28) H(10) 3.590 ? . 1_655
C(33) H(1) 3.291 ? . 1_455
C(34) H(3) 3.234 ? . 1_465
C(34) H(4) 3.189 ? . 1_465
C(36) H(6) 3.311 ? . 2_455
C(38) H(3) 3.223 ? . 1_465
C(38) H(4) 2.906 ? . 1_465
C(38) H(6) 3.331 ? . 2_455
C(40) H(20) 3.021 ? . 2_646
C(40) H(21) 3.312 ? . 2_646
C(41) H(10) 3.537 ? . 1_655
C(42) H(17) 3.413 ? . 1_545
C(42) H(20) 3.371 ? . 1_545
C(42) H(21) 2.908 ? . 2_646
C(42) H(23) 3.564 ? . 2_646
C(43) H(19) 3.080 ? . 1_565
C(43) H(21) 3.584 ? . 2_656
C(44) H(17) 3.285 ? . 2_646
C(44) H(20) 3.188 ? . 2_646
C(44) H(21) 3.482 ? . 2_646
C(45) H(21) 2.902 ? . 2_646
C(46) H(21) 3.309 ? . 2_646
C(46) H(23) 3.103 ? . 2_646
H(1) F(4) 3.067 ? . 1_655
H(1) C(33) 3.291 ? . 1_655
H(1) H(8) 3.132 ? . 2_555
H(1) H(9) 2.957 ? . 1_655
H(1) H(16) 3.388 ? . 1_545
H(2) C(6) 2.870 ? . 2_545
H(2) C(7) 3.009 ? . 2_545
H(2) C(9) 3.019 ? . 2_545
H(2) C(10) 3.499 ? . 2_545
H(2) C(15) 3.312 ? . 2_545
H(2) C(18) 3.235 ? . 2_545
H(2) C(25) 3.372 ? . 2_545
H(2) H(5) 3.468 ? . 2_545
H(2) H(11) 3.257 ? . 2_545
H(2) H(13) 2.871 ? . 1_545
H(3) F(4) 2.846 ? . 1_655
H(3) F(5) 2.639 ? . 1_655
H(3) C(9) 3.050 ? . 1_655
H(3) C(15) 3.487 ? . 1_655
H(3) C(17) 3.369 ? . 1_655
H(3) C(22) 3.091 ? . 1_655
H(3) C(34) 3.234 ? . 1_645
H(3) C(38) 3.223 ? . 1_645
H(3) H(5) 2.669 ? . 1_655
H(3) H(6) 3.468 ? . 1_655
H(3) H(8) 3.396 ? . 2_555
H(3) H(10) 2.595 ? . 1_645
H(3) H(12) 2.622 ? . 1_645
H(4) C(9) 3.183 ? . 2_545
H(4) C(15) 3.149 ? . 1_655
H(4) C(15) 2.938 ? . 2_545
H(4) C(25) 3.481 ? . 2_545
H(4) C(34) 3.189 ? . 1_645
H(4) C(38) 2.906 ? . 1_645
H(4) H(5) 3.314 ? . 2_545
H(4) H(6) 2.751 ? . 1_655
H(4) H(6) 2.939 ? . 2_545
H(4) H(10) 2.964 ? . 1_645
H(4) H(12) 2.445 ? . 1_645
H(5) C(15) 3.489 ? . 2_455
H(5) C(21) 3.097 ? . 1_455
H(5) C(25) 3.462 ? . 2_455
H(5) H(2) 3.468 ? . 2_555
H(5) H(3) 2.669 ? . 1_455
H(5) H(4) 3.314 ? . 2_555
H(5) H(6) 2.906 ? . 2_455
H(5) H(8) 2.845 ? . 2_455
H(5) H(12) 3.470 ? . 1_545
H(6) C(9) 3.540 ? . 2_445
H(6) C(21) 3.485 ? . 1_455
H(6) C(26) 3.071 ? . 1_455
H(6) C(36) 3.311 ? . 2_445
H(6) C(38) 3.331 ? . 2_445
H(6) H(3) 3.468 ? . 1_455
H(6) H(4) 2.751 ? . 1_455
H(6) H(4) 2.939 ? . 2_555
H(6) H(5) 2.906 ? . 2_445
H(6) H(8) 3.333 ? . 2_455
H(6) H(11) 3.214 ? . 2_445
H(6) H(12) 3.297 ? . 1_545
H(6) H(12) 3.323 ? . 2_445
H(7) C(3) 3.049 ? . 2_545
H(7) C(6) 3.302 ? . 2_545
H(7) C(7) 3.014 ? . 2_545
H(7) C(8) 3.307 ? . 2_545
H(7) C(10) 3.414 ? . 2_545
H(7) C(11) 2.873 ? . 2_545
H(7) C(19) 3.559 ? . 2_545
H(7) H(11) 3.156 ? . 1_545
H(7) H(13) 3.565 ? . 1_545
H(7) H(13) 3.422 ? . 2_545
H(8) C(3) 3.039 ? . 2_545
H(8) C(11) 3.403 ? . 2_545
H(8) C(12) 2.816 ? . 2_545
H(8) C(19) 3.539 ? . 2_545
H(8) C(21) 3.000 ? . 2_545
H(8) C(26) 3.379 ? . 2_545
H(8) H(1) 3.132 ? . 2_545
H(8) H(3) 3.396 ? . 2_545
H(8) H(5) 2.845 ? . 2_445
H(8) H(6) 3.333 ? . 2_445
H(8) H(11) 3.561 ? . 1_545
H(9) O(14) 3.151 ? . 1_455
H(9) H(1) 2.957 ? . 1_455
H(10) F(5) 3.192 ? . 1_565
H(10) O(14) 2.541 ? . 1_455
H(10) C(21) 2.960 ? . 1_465
H(10) C(26) 3.197 ? . 1_465
H(10) C(28) 3.590 ? . 1_455
H(10) C(41) 3.537 ? . 1_455
H(10) H(3) 2.595 ? . 1_465
H(10) H(4) 2.964 ? . 1_465
H(10) H(16) 3.485 ? . 1_455
H(11) C(18) 3.177 ? . 1_565
H(11) C(19) 3.487 ? . 2_555
H(11) C(25) 3.392 ? . 1_565
H(11) H(2) 3.257 ? . 2_555
H(11) H(6) 3.214 ? . 2_455
H(11) H(7) 3.156 ? . 1_565
H(11) H(8) 3.561 ? . 1_565
H(12) F(5) 2.924 ? . 1_565
H(12) C(6) 3.346 ? . 1_565
H(12) C(7) 3.523 ? . 1_565
H(12) C(9) 3.044 ? . 1_565
H(12) C(15) 2.936 ? . 1_565
H(12) C(18) 3.470 ? . 1_565
H(12) C(21) 3.171 ? . 1_465
H(12) C(25) 3.206 ? . 1_565
H(12) C(26) 3.111 ? . 1_465
H(12) H(3) 2.622 ? . 1_465
H(12) H(4) 2.445 ? . 1_465
H(12) H(5) 3.470 ? . 1_565
H(12) H(6) 3.297 ? . 1_565
H(12) H(6) 3.323 ? . 2_455
H(13) C(11) 3.343 ? . 1_565
H(13) C(18) 3.498 ? . 2_555
H(13) C(19) 2.948 ? . 1_565
H(13) C(26) 3.411 ? . 1_565
H(13) H(2) 2.871 ? . 1_565
H(13) H(7) 3.565 ? . 1_565
H(13) H(7) 3.422 ? . 2_555
H(14) O(2) 3.559 ? . 1_545
H(14) C(24) 3.420 ? . 1_545
H(14) C(27) 3.078 ? . 1_545
H(14) H(18) 2.882 ? . 1_545
H(15) C(23) 3.036 ? . 1_545
H(15) C(27) 3.200 ? . 1_545
H(15) H(17) 3.114 ? . 1_545
H(15) H(18) 3.391 ? . 1_545
H(16) C(3) 2.797 ? . 1_565
H(16) C(11) 2.923 ? . 1_565
H(16) C(12) 2.869 ? . 1_565
H(16) C(19) 3.087 ? . 1_565
H(16) C(21) 3.025 ? . 1_565
H(16) C(26) 3.096 ? . 1_565
H(16) H(1) 3.388 ? . 1_565
H(16) H(10) 3.485 ? . 1_655
H(17) C(42) 3.413 ? . 1_565
H(17) C(44) 3.285 ? . 2_656
H(17) H(15) 3.114 ? . 1_565
H(17) H(19) 2.925 ? . 1_565
H(17) H(21) 2.772 ? . 2_656
H(17) H(24) 3.514 ? . 1_565
H(18) F(20) 3.582 ? . 1_565
H(18) H(14) 2.882 ? . 1_565
H(18) H(15) 3.391 ? . 1_565
H(19) C(23) 3.124 ? . 1_545
H(19) C(43) 3.080 ? . 1_545
H(19) H(17) 2.925 ? . 1_545
H(19) H(20) 2.830 ? . 1_545
H(19) H(21) 3.188 ? . 2_646
H(20) C(40) 3.021 ? . 2_656
H(20) C(42) 3.371 ? . 1_565
H(20) C(44) 3.188 ? . 2_656
H(20) H(19) 2.830 ? . 1_565
H(20) H(21) 3.138 ? . 2_656
H(20) H(23) 2.783 ? . 2_656
H(21) C(23) 3.399 ? . 2_646
H(21) C(40) 3.312 ? . 2_656
H(21) C(42) 2.908 ? . 2_656
H(21) C(43) 3.584 ? . 2_646
H(21) C(44) 3.482 ? . 2_656
H(21) C(45) 2.902 ? . 2_656
H(21) C(46) 3.309 ? . 2_656
H(21) H(17) 2.772 ? . 2_646
H(21) H(19) 3.188 ? . 2_656
H(21) H(20) 3.138 ? . 2_646
H(21) H(24) 3.196 ? . 2_656
H(22) H(23) 2.955 ? . 2_646
H(23) C(42) 3.564 ? . 2_656
H(23) C(46) 3.103 ? . 2_656
H(23) H(20) 2.783 ? . 2_646
H(23) H(22) 2.955 ? . 2_656
H(24) H(17) 3.514 ? . 1_545
H(24) H(21) 3.196 ? . 2_646
H(25) F(4) 2.714 ? . 1_665
H(25) F(20) 3.544 ? . 1_665


#==============================================================================

# Additional structures and associated data_? identifiers
# should be added at this point if there is more than one
# structure analysis in the CIF.

#==============================================================================

# End of CIF

#==============================================================================



