data_p-1_a
_audit_creation_date              2016-12-13
_audit_creation_method
;
Olex2 1.2
(compiled 2016.11.30 svn.r3356 for OlexSys, GUI svn.r5269)
;
loop_
  _publ_author_name
  _publ_author_email
  _publ_author_address
 'Kratzert, D.' dkratzert@gmx.de
;
Albertstrasse 21
Freiburg i. Br.
79104
Germany
;

_publ_contact_author_address
;
Albertstrasse 21
Freiburg i. Br.
79104
Germany
;
_publ_contact_author_email        dkratzert@gmx.de
_publ_contact_author_id_orcid     ''
_publ_contact_author_name         'Kratzert, D.'
_publ_contact_author_phone        +49761-2036156
_publ_requested_journal           ?
_publ_section_references
;
Dolomanov, O.V., Bourhis, L.J., Gildea, R.J, Howard, J.A.K. & Puschmann, H.
 (2009), J. Appl. Cryst. 42, 339-341.

Sheldrick, G.M. (2015). Acta Cryst. C71, 3-8.
;
_chemical_name_common             ?
_chemical_name_systematic         Iron(II)mesylate
_chemical_formula_moiety          'C2 H10 Fe O8 S2'
_chemical_formula_sum             'C2 H10 Fe O8 S2'
_chemical_formula_weight          282.07
_chemical_melting_point           ?
loop_
  _atom_type_symbol
  _atom_type_description
  _atom_type_scat_dispersion_real
  _atom_type_scat_dispersion_imag
  _atom_type_scat_source
 'C' 'C' 0.0033 0.0016 'International Tables Vol C Tables 4.2.6.8 and 6.1.1.4'
 'H' 'H' 0.0000 0.0000 'International Tables Vol C Tables 4.2.6.8 and 6.1.1.4'
 'Fe' 'Fe' 0.3463 0.8444 'International Tables Vol C Tables 4.2.6.8 and 6.1.1.4'
 'O' 'O' 0.0106 0.0060 'International Tables Vol C Tables 4.2.6.8 and 6.1.1.4'
 'S' 'S' 0.1246 0.1234 'International Tables Vol C Tables 4.2.6.8 and 6.1.1.4'

_shelx_space_group_comment
;
The symmetry employed for this shelxl refinement is uniquely defined
by the following loop, which should always be used as a source of
symmetry information in preference to the above space-group names.
They are only intended as comments.
;
_space_group_crystal_system       'triclinic'
_space_group_IT_number            2
_space_group_name_H-M_alt         'P -1'
_space_group_name_Hall            '-P 1'
loop_
  _space_group_symop_operation_xyz
 'x, y, z'
 '-x, -y, -z'

_cell_length_a                    4.5742(11)
_cell_length_b                    6.0059(14)
_cell_length_c                    8.0746(19)
_cell_angle_alpha                 86.912(8)
_cell_angle_beta                  85.485(8)
_cell_angle_gamma                 86.222(8)
_cell_volume                      220.39(9)
_cell_formula_units_Z             1
_cell_measurement_reflns_used     883
_cell_measurement_temperature     100(2)
_cell_measurement_theta_max       28.349
_cell_measurement_theta_min       2.534
_shelx_estimated_absorpt_T_max    0.957
_shelx_estimated_absorpt_T_min    0.844
_exptl_absorpt_coefficient_mu     2.198
_exptl_absorpt_correction_T_max   0.6471
_exptl_absorpt_correction_T_min   0.5380
_exptl_absorpt_correction_type    multi-scan
_exptl_absorpt_process_details
;
 TWINABS-2012/1 (Bruker,2012) was used for absorption correction.
 
For component 1:
 wR2(int) was 0.0800 before and 0.0438 after correction.
 The Ratio of minimum to maximum transmission not present.
 The \l/2 correction factor is Not present
 
For component 2:
 wR2(int) was 0.1183 before and 0.0330 after correction.
 The Ratio of minimum to maximum transmission is 0.88.
 The \l/2 correction factor is Not present

Final HKLF 4 output contains 16377 reflections, Rint = 0.0351
 (13941 with I > 3sig(I), Rint = 0.0346)
;
_exptl_absorpt_special_details    ?
_exptl_crystal_colour             'clear colourless'
_exptl_crystal_colour_lustre      clear
_exptl_crystal_colour_primary     colourless
_exptl_crystal_density_diffrn     2.125
_exptl_crystal_density_meas       ?
_exptl_crystal_density_method     ?
_exptl_crystal_description        block
_exptl_crystal_F_000              144
_exptl_crystal_preparation
'Iron powder was oxidised by sulfonic acid under reflux.'
_exptl_crystal_recrystallization_method 'Evaporation of Solvent.'
_exptl_crystal_size_max           0.08
_exptl_crystal_size_mid           0.05
_exptl_crystal_size_min           0.02
_exptl_transmission_factor_max    ?
_exptl_transmission_factor_min    ?
_diffrn_reflns_av_R_equivalents   ?
_diffrn_reflns_av_unetI/netI      0.0113
_diffrn_reflns_Laue_measured_fraction_full 0.999
_diffrn_reflns_Laue_measured_fraction_max 0.995
_diffrn_reflns_limit_h_max        ?
_diffrn_reflns_limit_h_min        ?
_diffrn_reflns_limit_k_max        ?
_diffrn_reflns_limit_k_min        ?
_diffrn_reflns_limit_l_max        ?
_diffrn_reflns_limit_l_min        ?
_diffrn_reflns_number             963
_diffrn_reflns_point_group_measured_fraction_full 0.999
_diffrn_reflns_point_group_measured_fraction_max 0.995
_diffrn_reflns_theta_full         25.242
_diffrn_reflns_theta_max          27.041
_diffrn_reflns_theta_min          2.533
_diffrn_ambient_temperature       100.13
_diffrn_detector                  'Bruker APEX2 area detector'
_diffrn_detector_area_resol_mean  7.9
_diffrn_detector_type             'CCD area detector'
_diffrn_measured_fraction_theta_full 0.999
_diffrn_measured_fraction_theta_max 0.995
_diffrn_measurement_device        'three-circle diffractometer'
_diffrn_measurement_device_type   'Bruker APEX2 microsource'
_diffrn_measurement_method        '\w and \f scans'
_diffrn_radiation_monochromator   'mirror optics'
_diffrn_radiation_probe           x-ray
_diffrn_radiation_type            MoK\a
_diffrn_radiation_wavelength      0.71073
_diffrn_source                    'microfocus sealed X-ray tube'
_diffrn_source_type               'Incoatec I\ms'
_diffrn_special_details
;
The crystal appeared to be a split crystal of bad quality with 3 deg rotation between the two domains. Twin law:
     1.00234  0.00312 -0.02677
    -0.00216  1.00022 -0.00162
     0.08312 -0.00064  0.99522
;
_diffrn_standards_number          0
_reflns_Friedel_coverage          0.000
_reflns_Friedel_fraction_full     .
_reflns_Friedel_fraction_max      .
_reflns_number_gt                 924
_reflns_number_total              963
_reflns_special_details
;
 Reflections were merged by SHELXL according to the crystal
 class for the calculation of statistics and refinement.
 
 _reflns_Friedel_fraction is defined as the number of unique
 Friedel pairs measured divided by the number that would be
 possible theoretically, ignoring centric projections and
 systematic absences.
;
_reflns_threshold_expression      'I > 2\s(I)'
_computing_cell_refinement        'SAINT v8.37A (Bruker, 2015)'
_computing_data_collection        ?
_computing_data_reduction         'SAINT v8.37A (Bruker, 2015)'
_computing_molecular_graphics     'Olex2 (Dolomanov et al., 2009)'
_computing_publication_material   'Olex2 (Dolomanov et al., 2009)'
_computing_structure_refinement   'ShelXL (Sheldrick, 2015)'
_computing_structure_solution     ?
_refine_diff_density_max          1.092
_refine_diff_density_min          -0.571
_refine_diff_density_rms          0.149
_refine_ls_extinction_coef        .
_refine_ls_extinction_method      none
_refine_ls_goodness_of_fit_ref    1.139
_refine_ls_hydrogen_treatment     mixed
_refine_ls_matrix_type            full
_refine_ls_number_parameters      68
_refine_ls_number_reflns          963
_refine_ls_number_restraints      4
_refine_ls_R_factor_all           0.0307
_refine_ls_R_factor_gt            0.0302
_refine_ls_restrained_S_all       1.138
_refine_ls_shift/su_max           0.000
_refine_ls_shift/su_mean          0.000
_refine_ls_structure_factor_coef  Fsqd
_refine_ls_weighting_details
'w=1/[\s^2^(Fo^2^)+(0.0702P)^2^+0.2966P] where P=(Fo^2^+2Fc^2^)/3'
_refine_ls_weighting_scheme       calc
_refine_ls_wR_factor_gt           0.1049
_refine_ls_wR_factor_ref          0.1051
_refine_special_details           ?
_olex2_refinement_description
;
1. Fixed Uiso
 At 1.5 times of:
  All C(H,H,H) groups, All O(H,H) groups
2. Restrained distances
 O4-H4B = O4-H4A
 0.01 with sigma of 0.84
 H4A-H4B
 1.33 with sigma of 0.04
 O4-H4B \\sim O4-H4A
 with sigma of 0.01
3.a Idealised Me refined as rotating group:
 C1(H1A,H1B,H1C)
;
_atom_sites_solution_hydrogens    mixed
_atom_sites_solution_primary      ?
_atom_sites_solution_secondary    ?
loop_
  _atom_site_label
  _atom_site_type_symbol
  _atom_site_fract_x
  _atom_site_fract_y
  _atom_site_fract_z
  _atom_site_U_iso_or_equiv
  _atom_site_adp_type
  _atom_site_occupancy
  _atom_site_site_symmetry_order
  _atom_site_calc_flag
  _atom_site_refinement_flags_posn
  _atom_site_refinement_flags_adp
  _atom_site_refinement_flags_occupancy
  _atom_site_disorder_assembly
  _atom_site_disorder_group
 Fe1 Fe 1.000000 0.500000 0.500000 0.0095(2) Uani 1 2 d S T P . .
 S1 S 0.50111(13) 0.75815(10) 0.27231(7) 0.0097(2) Uani 1 1 d . . . . .
 O1 O 0.2959(4) 0.5786(3) 0.2925(2) 0.0129(4) Uani 1 1 d . . . . .
 C1 C 0.7223(6) 0.7065(5) 0.0887(3) 0.0151(5) Uani 1 1 d . . . . .
 H1A H 0.600164 0.719542 -0.006177 0.023 Uiso 1 1 calc GR . . . .
 H1B H 0.816725 0.555522 0.097172 0.023 Uiso 1 1 calc GR . . . .
 H1C H 0.873202 0.815797 0.072810 0.023 Uiso 1 1 calc GR . . . .
 O2 O 0.6970(4) 0.7490(3) 0.4086(2) 0.0126(4) Uani 1 1 d . . . . .
 O4 O 1.1330(4) 0.7474(3) 0.6522(2) 0.0131(4) Uani 1 1 d D . . . .
 H4A H 1.003(5) 0.841(6) 0.675(5) 0.020 Uiso 1 1 d DR . . . .
 H4B H 1.285(5) 0.809(7) 0.633(4) 0.020 Uiso 1 1 d DR . . . .
 O3 O 0.3565(4) 0.9794(3) 0.2515(2) 0.0156(4) Uani 1 1 d . . . . .

loop_
  _atom_site_aniso_label
  _atom_site_aniso_U_11
  _atom_site_aniso_U_22
  _atom_site_aniso_U_33
  _atom_site_aniso_U_23
  _atom_site_aniso_U_13
  _atom_site_aniso_U_12
 Fe1 0.0100(3) 0.0052(3) 0.0134(3) -0.0005(2) -0.0014(2) -0.0005(2)
 S1 0.0105(4) 0.0054(3) 0.0130(4) -0.0004(2) -0.0006(2) 0.0001(2)
 O1 0.0131(9) 0.0090(9) 0.0166(9) -0.0014(7) -0.0003(7) -0.0029(7)
 C1 0.0161(13) 0.0131(13) 0.0156(13) -0.0010(10) 0.0026(10) -0.0001(10)
 O2 0.0130(9) 0.0083(8) 0.0167(9) -0.0013(7) -0.0026(7) 0.0000(7)
 O4 0.0104(9) 0.0072(9) 0.0222(10) -0.0040(7) -0.0008(7) -0.0012(7)
 O3 0.0183(10) 0.0079(9) 0.0197(10) 0.0007(7) -0.0008(8) 0.0036(7)

_geom_special_details
;
 All esds (except the esd in the dihedral angle between two l.s. planes)
 are estimated using the full covariance matrix.  The cell esds are taken
 into account individually in the estimation of esds in distances, angles
 and torsion angles; correlations between esds in cell parameters are only
 used when they are defined by crystal symmetry.  An approximate (isotropic)
 treatment of cell esds is used for estimating esds involving l.s. planes.
;
loop_
  _geom_bond_atom_site_label_1
  _geom_bond_atom_site_label_2
  _geom_bond_distance
  _geom_bond_site_symmetry_2
  _geom_bond_publ_flag
 Fe1 O1 2.1224(19) 2_666 ?
 Fe1 O1 2.1224(19) 1_655 ?
 Fe1 O2 2.1144(19) 2_766 ?
 Fe1 O2 2.1145(19) . ?
 Fe1 O4 2.1266(19) 2_766 ?
 Fe1 O4 2.1266(19) . ?
 S1 O1 1.4702(19) . ?
 S1 C1 1.758(3) . ?
 S1 O2 1.469(2) . ?
 S1 O3 1.4524(19) . ?
 C1 H1A 0.9800 . ?
 C1 H1B 0.9800 . ?
 C1 H1C 0.9800 . ?
 O4 H4A 0.81(2) . ?
 O4 H4B 0.81(2) . ?

loop_
  _geom_angle_atom_site_label_1
  _geom_angle_atom_site_label_2
  _geom_angle_atom_site_label_3
  _geom_angle
  _geom_angle_site_symmetry_1
  _geom_angle_site_symmetry_3
  _geom_angle_publ_flag
 O1 Fe1 O1 180.0 2_666 1_655 ?
 O1 Fe1 O4 84.46(7) 1_655 2_766 ?
 O1 Fe1 O4 95.54(7) 1_655 . ?
 O1 Fe1 O4 95.54(7) 2_666 2_766 ?
 O1 Fe1 O4 84.46(7) 2_666 . ?
 O2 Fe1 O1 88.62(7) 2_766 2_666 ?
 O2 Fe1 O1 91.38(7) . 2_666 ?
 O2 Fe1 O1 91.38(7) 2_766 1_655 ?
 O2 Fe1 O1 88.62(7) . 1_655 ?
 O2 Fe1 O2 180.0 2_766 . ?
 O2 Fe1 O4 93.39(7) . 2_766 ?
 O2 Fe1 O4 93.40(7) 2_766 . ?
 O2 Fe1 O4 86.60(7) 2_766 2_766 ?
 O2 Fe1 O4 86.61(7) . . ?
 O4 Fe1 O4 180.00(6) . 2_766 ?
 O1 S1 C1 105.79(12) . . ?
 O2 S1 O1 111.67(11) . . ?
 O2 S1 C1 107.12(12) . . ?
 O3 S1 O1 113.43(12) . . ?
 O3 S1 C1 107.53(12) . . ?
 O3 S1 O2 110.87(11) . . ?
 S1 O1 Fe1 128.32(11) . 1_455 ?
 S1 C1 H1A 109.5 . . ?
 S1 C1 H1B 109.5 . . ?
 S1 C1 H1C 109.5 . . ?
 H1A C1 H1B 109.5 . . ?
 H1A C1 H1C 109.5 . . ?
 H1B C1 H1C 109.5 . . ?
 S1 O2 Fe1 133.14(11) . . ?
 Fe1 O4 H4A 113(3) . . ?
 Fe1 O4 H4B 123(3) . . ?
 H4A O4 H4B 109(4) . . ?

loop_
  _geom_torsion_atom_site_label_1
  _geom_torsion_atom_site_label_2
  _geom_torsion_atom_site_label_3
  _geom_torsion_atom_site_label_4
  _geom_torsion
  _geom_torsion_site_symmetry_1
  _geom_torsion_site_symmetry_2
  _geom_torsion_site_symmetry_3
  _geom_torsion_site_symmetry_4
  _geom_torsion_publ_flag
 O1 S1 O2 Fe1 57.96(18) . . . . ?
 C1 S1 O1 Fe1 170.84(14) . . . 1_455 ?
 C1 S1 O2 Fe1 -57.43(18) . . . . ?
 O2 S1 O1 Fe1 54.64(17) . . . 1_455 ?
 O3 S1 O1 Fe1 -71.53(17) . . . 1_455 ?
 O3 S1 O2 Fe1 -174.48(14) . . . . ?

_shelx_SHELXL_version_number      '2016/6'
loop_
  _refln_index_h
  _refln_index_k
  _refln_index_l
  _refln_F_squared_meas
  _refln_F_squared_sigma
 1 0 0 35.48 0.16
 2 0 0 37.72 0.27
 3 0 0 35.38 0.28
 4 0 0 107.88 0.78
 5 0 0 30.25 0.67
 -5 1 0 0.78 0.2
 -4 1 0 35.63 0.5
 -3 1 0 111.54 0.69
 -2 1 0 139.94 0.76
 -1 1 0 128.53 0.74
 0 1 0 238.45 1.74
 1 1 0 278.55 1.47
 2 1 0 4.99 0.09
 3 1 0 10.33 0.15
 4 1 0 99.26 0.79
 5 1 0 25.75 0.66
 -5 2 0 139.33 1.55
 -4 2 0 0.54 0.16
 -3 2 0 240.04 1.45
 -2 2 0 4.95 0.12
 -1 2 0 294.95 2.61
 0 2 0 118.67 1.16
 1 2 0 215.8 1.89
 2 2 0 5.03 0.1
 3 2 0 323.95 1.73
 4 2 0 3.52 0.2
 5 2 0 139.78 1.51
 -5 3 0 22.12 0.57
 -4 3 0 118.25 1.25
 -3 3 0 3.53 0.17
 -2 3 0 1.28 0.1
 -1 3 0 381.34 3.61
 0 3 0 40.01 0.44
 1 3 0 6.01 0.13
 2 3 0 458.8 2.69
 3 3 0 58.22 0.49
 4 3 0 6.07 0.3
 5 3 0 4.08 0.3
 -4 4 0 84.81 1.09
 -3 4 0 4.71 0.25
 -2 4 0 95.81 1.12
 -1 4 0 2.42 0.11
 0 4 0 1000 8.64
 1 4 0 20.8 0.33
 2 4 0 160.18 1.51
 3 4 0 12.05 0.3
 4 4 0 33.55 0.61
 5 4 0 12.64 0.62
 -4 5 0 15.78 0.64
 -3 5 0 37.18 0.64
 -2 5 0 35.01 0.82
 -1 5 0 131.84 1.45
 0 5 0 8.11 0.21
 1 5 0 68 0.84
 2 5 0 6.77 0.29
 3 5 0 9.95 0.36
 4 5 0 16.97 0.54
 -3 6 0 88.75 1.19
 -2 6 0 9.16 0.44
 -1 6 0 77.18 1.72
 0 6 0 36.23 0.54
 1 6 0 168.63 2.23
 2 6 0 0.38 0.23
 3 6 0 76.42 1.13
 -2 7 0 20.18 0.78
 -1 7 0 19.22 0.64
 0 7 0 8.91 0.48
 1 7 0 11.41 0.63
 2 7 0 136.52 2.55
 -2 -7 1 72.78 2.01
 -1 -7 1 0.68 0.23
 0 -7 1 85.43 2.51
 1 -7 1 5.01 0.4
 -3 -6 1 3.17 0.28
 -2 -6 1 59.71 1.17
 -1 -6 1 0.91 0.19
 0 -6 1 13.21 0.37
 1 -6 1 40.96 0.87
 2 -6 1 55.3 1.17
 3 -6 1 16.25 0.59
 -4 -5 1 0.13 0.14
 -3 -5 1 16.69 0.42
 -2 -5 1 3.26 0.23
 -1 -5 1 456.72 4.66
 0 -5 1 31.24 0.52
 1 -5 1 162.53 1.75
 2 -5 1 44.86 0.83
 3 -5 1 55.07 0.72
 4 -5 1 33.03 0.96
 -5 -4 1 20.77 0.68
 -4 -4 1 10.21 0.37
 -3 -4 1 22 0.43
 -2 -4 1 67.13 0.76
 -1 -4 1 136.9 1.44
 0 -4 1 117.61 1.22
 1 -4 1 17 0.28
 2 -4 1 10.87 0.25
 3 -4 1 53.42 0.67
 4 -4 1 6.63 0.5
 -5 -3 1 3.63 0.29
 -4 -3 1 144.84 1.29
 -3 -3 1 12.91 0.27
 -2 -3 1 291.12 1.64
 -1 -3 1 1.7 0.09
 0 -3 1 207.01 1.88
 1 -3 1 9.86 0.18
 2 -3 1 224.09 1.31
 3 -3 1 7.48 0.21
 4 -3 1 234.94 1.96
 5 -3 1 3.22 0.28
 -5 -2 1 62.42 0.98
 -4 -2 1 2.08 0.16
 -3 -2 1 40.43 0.33
 -2 -2 1 292.59 1.42
 -1 -2 1 72.39 0.47
 0 -2 1 0.41 0.05
 1 -2 1 727.77 4.07
 2 -2 1 53.36 0.34
 3 -2 1 34.37 0.36
 4 -2 1 68.66 0.78
 5 -2 1 53.42 0.96
 -5 -1 1 82.36 1.3
 -4 -1 1 10.39 0.27
 -3 -1 1 131.37 0.73
 -2 -1 1 3.06 0.07
 -1 -1 1 697.45 3.91
 0 -1 1 43.33 0.26
 1 -1 1 993.07 5.82
 2 -1 1 110.4 0.6
 3 -1 1 73.05 0.5
 4 -1 1 22.47 0.33
 5 -1 1 137.49 1.8
 -5 0 1 7.04 0.43
 -4 0 1 11.54 0.23
 -3 0 1 53.7 0.38
 -2 0 1 301.9 1.47
 -1 0 1 90 0.36
 0 0 1 434.88 1.56
 1 0 1 117.1 0.47
 2 0 1 1.42 0.06
 3 0 1 46.47 0.34
 4 0 1 72.8 0.6
 5 0 1 8 0.4
 -5 1 1 14.9 0.58
 -4 1 1 147.95 1.16
 -3 1 1 69.29 0.47
 -2 1 1 209.4 1.01
 -1 1 1 16.71 0.14
 0 1 1 951.95 7.55
 1 1 1 142.12 0.79
 2 1 1 125.26 0.69
 3 1 1 1.89 0.07
 4 1 1 299.74 1.94
 5 1 1 3.89 0.42
 -5 2 1 45.81 0.91
 -4 2 1 18.88 0.33
 -3 2 1 75.32 0.63
 -2 2 1 45.91 0.34
 -1 2 1 3.87 0.08
 0 2 1 78.5 0.81
 1 2 1 572.89 4.22
 2 2 1 1.94 0.08
 3 2 1 174.09 1.09
 4 2 1 84.37 0.74
 -5 3 1 35.56 0.86
 -4 3 1 0.11 0.11
 -3 3 1 155.02 1.18
 -2 3 1 72.15 0.6
 -1 3 1 434.84 3.87
 0 3 1 91.38 0.87
 1 3 1 242.16 2.21
 2 3 1 17.55 0.24
 3 3 1 200.22 1.26
 4 3 1 14.2 0.39
 5 3 1 71.23 1.03
 -4 4 1 35.24 0.68
 -3 4 1 5.36 0.27
 -2 4 1 90.97 1.1
 -1 4 1 74.84 0.84
 0 4 1 294.26 2.84
 1 4 1 8.95 0.19
 2 4 1 22.2 0.41
 3 4 1 15.75 0.36
 4 4 1 40.5 0.71
 5 4 1 1.23 0.27
 -4 5 1 78.8 1.89
 -3 5 1 5.22 0.3
 -2 5 1 102.97 1.61
 -1 5 1 0.99 0.13
 0 5 1 283.03 3.29
 1 5 1 51.51 0.63
 2 5 1 136.92 1.99
 3 5 1 6.11 0.35
 4 5 1 75.53 1.13
 -3 6 1 7.84 0.45
 -2 6 1 6.19 0.46
 -1 6 1 63.21 1.13
 0 6 1 1.84 0.15
 1 6 1 84.33 1.46
 2 6 1 17.84 0.6
 3 6 1 79.58 1.32
 -2 7 1 12.82 0.94
 -1 7 1 155.21 3.12
 0 7 1 2.6 0.29
 1 7 1 64.09 1.86
 2 7 1 15.59 0.69
 -2 -7 2 0.1 0.22
 -1 -7 2 14.8 0.87
 0 -7 2 38.32 1.17
 1 -7 2 0.77 0.29
 -3 -6 2 7.65 0.38
 -2 -6 2 73.88 1.23
 -1 -6 2 4.63 0.43
 0 -6 2 153.23 2.7
 1 -6 2 3.36 0.27
 2 -6 2 79.46 1.34
 3 -6 2 0.51 0.72
 -4 -5 2 12.32 0.48
 -3 -5 2 16.68 0.44
 -2 -5 2 9.74 0.37
 -1 -5 2 101.76 1.49
 0 -5 2 91.38 1.16
 1 -5 2 7.99 0.28
 2 -5 2 31.47 0.56
 3 -5 2 15.76 0.38
 4 -5 2 0.05 0.44
 -4 -4 2 3.52 0.26
 -3 -4 2 102.07 1.07
 -2 -4 2 1.8 0.14
 -1 -4 2 405.25 3.75
 0 -4 2 15.74 0.27
 1 -4 2 116.1 1.23
 2 -4 2 2.26 0.17
 3 -4 2 121.82 1.16
 4 -4 2 1.39 0.17
 -5 -3 2 25.44 0.57
 -4 -3 2 36.58 0.58
 -3 -3 2 46.2 0.55
 -2 -3 2 25.29 0.34
 -1 -3 2 26 0.28
 0 -3 2 79.04 0.8
 1 -3 2 0.24 0.05
 2 -3 2 138.78 0.89
 3 -3 2 89.16 0.81
 4 -3 2 13.1 0.37
 5 -3 2 12.92 0.41
 -5 -2 2 7.01 0.45
 -4 -2 2 122.01 1.08
 -3 -2 2 78.06 0.68
 -2 -2 2 331.78 1.72
 -1 -2 2 2.52 0.09
 0 -2 2 83.3 0.55
 1 -2 2 91.13 0.69
 2 -2 2 511.5 2.77
 3 -2 2 16.2 0.24
 4 -2 2 124.42 1.11
 5 -2 2 4.02 0.33
 -5 -1 2 34.56 0.8
 -4 -1 2 1.41 0.13
 -3 -1 2 27.59 0.24
 -2 -1 2 76.53 0.42
 -1 -1 2 423.98 2.04
 0 -1 2 196.57 1.03
 1 -1 2 115.97 0.72
 2 -1 2 95.95 0.54
 3 -1 2 26.26 0.26
 4 -1 2 0.99 0.11
 5 -1 2 68.92 1.15
 -5 0 2 52.72 0.99
 -4 0 2 1.65 0.16
 -3 0 2 190.55 0.98
 -2 0 2 19.55 0.18
 -1 0 2 660.61 2.6
 0 0 2 104.23 0.42
 1 0 2 451.88 1.75
 2 0 2 3.04 0.09
 3 0 2 85.27 0.56
 4 0 2 3.59 0.19
 5 0 2 131.09 1.72
 -5 1 2 11.19 0.58
 -4 1 2 12.73 0.27
 -3 1 2 133.36 0.72
 -2 1 2 197.07 0.9
 -1 1 2 192.18 1.02
 0 1 2 180.43 0.93
 1 1 2 121.87 0.66
 2 1 2 78.87 0.45
 3 1 2 53.02 0.39
 4 1 2 120.38 1.06
 5 1 2 13.88 0.47
 -5 2 2 1.06 0.24
 -4 2 2 64.18 0.72
 -3 2 2 12.7 0.24
 -2 2 2 345.38 1.95
 -1 2 2 20.17 0.21
 0 2 2 127.59 1.14
 1 2 2 302.18 1.9
 2 2 2 440.11 2.33
 3 2 2 35.45 0.36
 4 2 2 196.85 1.48
 5 2 2 1.86 0.33
 -5 3 2 35.82 0.91
 -4 3 2 0.67 0.15
 -3 3 2 49.39 0.58
 -2 3 2 23.73 0.32
 -1 3 2 155.86 1.25
 0 3 2 140.58 1.3
 1 3 2 181.94 1.71
 2 3 2 2.72 0.09
 3 3 2 74.18 0.68
 4 3 2 0.59 0.22
 5 3 2 50.52 0.98
 -4 4 2 8.14 0.39
 -3 4 2 168.02 1.55
 -2 4 2 7.81 0.29
 -1 4 2 306.72 3.17
 0 4 2 3.85 0.13
 1 4 2 89.6 0.98
 2 4 2 14.73 0.34
 3 4 2 135.06 1.3
 4 4 2 7.19 0.53
 5 4 2 57.44 1.28
 -3 5 2 56.53 0.86
 -2 5 2 45.25 0.79
 -1 5 2 30.51 0.63
 0 5 2 242.28 2.28
 1 5 2 6.26 0.21
 2 5 2 13.2 0.44
 3 5 2 42.53 0.86
 4 5 2 126.84 1.57
 -3 6 2 1.28 0.35
 -2 6 2 60 1.1
 -1 6 2 0.99 0.2
 0 6 2 107.21 1.86
 1 6 2 9.87 0.31
 2 6 2 142.34 2.48
 3 6 2 3.22 0.27
 -1 7 2 98.76 2.14
 0 7 2 6.71 0.39
 1 7 2 48.04 1.09
 2 7 2 1.97 0.26
 -1 -7 3 16.54 1.09
 0 -7 3 1.7 0.33
 1 -7 3 113.4 6.91
 -3 -6 3 11.72 0.85
 -2 -6 3 19.64 0.63
 -1 -6 3 14.05 0.45
 0 -6 3 35.81 0.93
 1 -6 3 46.7 1.12
 2 -6 3 24.82 0.62
 -4 -5 3 55.09 2.08
 -3 -5 3 0.78 0.19
 -2 -5 3 177.51 2.1
 -1 -5 3 0.15 0.13
 0 -5 3 183.3 2.67
 1 -5 3 4.7 0.25
 2 -5 3 58.99 0.85
 3 -5 3 0.07 0.13
 -4 -4 3 82.21 1.11
 -3 -4 3 55.48 0.83
 -2 -4 3 1.37 0.12
 -1 -4 3 156.95 1.29
 0 -4 3 20.42 0.34
 1 -4 3 0.32 0.09
 2 -4 3 31.23 0.44
 3 -4 3 86.16 0.96
 4 -4 3 11 0.41
 -5 -3 3 52.78 0.95
 -4 -3 3 0.51 0.16
 -3 -3 3 185.21 1.43
 -2 -3 3 35.95 0.4
 -1 -3 3 76.65 0.47
 0 -3 3 50.26 0.43
 1 -3 3 224.78 1.32
 2 -3 3 17.28 0.28
 3 -3 3 327.81 2.38
 4 -3 3 0.13 0.12
 5 -3 3 15.9 0.57
 -5 -2 3 0.66 0.24
 -4 -2 3 20.57 0.43
 -3 -2 3 8.89 0.23
 -2 -2 3 47.92 0.41
 -1 -2 3 82.58 0.5
 0 -2 3 232.54 1.27
 1 -2 3 71.75 0.51
 2 -2 3 171.46 1.13
 3 -2 3 0.14 0.08
 4 -2 3 26.38 0.46
 5 -2 3 7.09 0.46
 -5 -1 3 4.19 0.37
 -4 -1 3 78.95 0.87
 -3 -1 3 28.59 0.37
 -2 -1 3 658.76 3.03
 -1 -1 3 53.34 0.31
 0 -1 3 129.53 0.72
 1 -1 3 3.71 0.08
 2 -1 3 256.56 1.26
 3 -1 3 4.36 0.13
 4 -1 3 62.53 0.73
 5 -1 3 1.94 0.27
 -5 0 3 43.58 1.01
 -4 0 3 65.9 0.92
 -3 0 3 41.68 0.35
 -2 0 3 0.26 0.04
 -1 0 3 800.36 3.5
 0 0 3 33.84 0.21
 1 0 3 35.6 0.24
 2 0 3 214.87 1.02
 3 0 3 151.56 0.88
 4 0 3 0.47 0.11
 5 0 3 84.12 1.29
 -5 1 3 97.26 1.72
 -4 1 3 1.42 0.17
 -3 1 3 102.74 0.77
 -2 1 3 6.24 0.11
 -1 1 3 155.37 0.82
 0 1 3 6.88 0.09
 1 1 3 505.06 2.2
 2 1 3 0.19 0.04
 3 1 3 332.67 1.74
 4 1 3 1.04 0.12
 5 1 3 28.06 0.7
 -5 2 3 0.17 0.37
 -4 2 3 11.18 0.33
 -3 2 3 11.29 0.26
 -2 2 3 106.65 0.65
 -1 2 3 2.88 0.1
 0 2 3 327.17 1.88
 1 2 3 148.88 0.92
 2 2 3 195.25 0.93
 3 2 3 11.57 0.23
 4 2 3 62.8 0.66
 5 2 3 8.7 0.48
 -4 3 3 20.77 0.47
 -3 3 3 7.09 0.25
 -2 3 3 590.21 3.85
 -1 3 3 0.22 0.07
 0 3 3 50.49 0.55
 1 3 3 74.89 0.69
 2 3 3 131.88 0.9
 3 3 3 56.02 0.57
 4 3 3 110.46 1.13
 5 3 3 11.49 0.5
 -4 4 3 3.57 0.29
 -3 4 3 86.95 0.98
 -2 4 3 5.53 0.22
 -1 4 3 157.57 1.78
 0 4 3 3.01 0.13
 1 4 3 39.2 0.55
 2 4 3 35.69 0.53
 3 4 3 85.54 0.9
 4 4 3 0.21 0.15
 5 4 3 95.98 1.75
 -3 5 3 65.34 1.04
 -2 5 3 2.56 0.22
 -1 5 3 48.52 1.02
 0 5 3 2.26 0.18
 1 5 3 201.42 2.64
 2 5 3 1.51 0.19
 3 5 3 147.37 1.6
 4 5 3 7.42 0.38
 -2 6 3 27.26 0.73
 -1 6 3 2.49 0.27
 0 6 3 217.71 3.46
 1 6 3 10.52 0.45
 2 6 3 32.78 0.84
 3 6 3 1.24 0.21
 -1 7 3 0.16 0.36
 0 7 3 59.61 1.53
 1 7 3 10.05 0.44
 2 7 3 18.12 0.69
 -2 -6 4 0.23 0.17
 -1 -6 4 56.58 0.96
 0 -6 4 5.84 0.36
 1 -6 4 109.74 1.62
 2 -6 4 13.01 0.43
 -3 -5 4 15.71 0.52
 -2 -5 4 139.08 1.43
 -1 -5 4 0.16 0.13
 0 -5 4 7.11 0.37
 1 -5 4 56.58 0.82
 2 -5 4 16.07 0.45
 3 -5 4 1.96 0.22
 -4 -4 4 68.11 1.1
 -3 -4 4 0.24 0.15
 -2 -4 4 91.16 0.93
 -1 -4 4 5.52 0.2
 0 -4 4 132.88 1.21
 1 -4 4 5.8 0.21
 2 -4 4 217.15 1.76
 3 -4 4 1.23 0.18
 4 -4 4 45 0.8
 -4 -3 4 15.34 0.52
 -3 -3 4 22.38 0.45
 -2 -3 4 1.31 0.12
 -1 -3 4 105.16 0.74
 0 -3 4 56.81 0.46
 1 -3 4 131.77 1.01
 2 -3 4 5.11 0.18
 3 -3 4 95.84 0.98
 4 -3 4 3.57 0.26
 -5 -2 4 14.16 0.86
 -4 -2 4 3.04 0.25
 -3 -2 4 272.13 1.91
 -2 -2 4 15.45 0.26
 -1 -2 4 173.93 0.85
 0 -2 4 215.75 1.16
 1 -2 4 138.93 0.76
 2 -2 4 63.1 0.56
 3 -2 4 196.24 1.39
 4 -2 4 0.27 0.13
 5 -2 4 30.44 0.78
 -5 -1 4 0.27 0.29
 -4 -1 4 83.14 1.02
 -3 -1 4 16.36 0.29
 -2 -1 4 169.03 0.88
 -1 -1 4 14 0.16
 0 -1 4 62.39 0.4
 1 -1 4 25.47 0.19
 2 -1 4 48.57 0.35
 3 -1 4 0.11 0.07
 4 -1 4 148.17 1.33
 5 -1 4 4.49 0.37
 -5 0 4 1.54 0.35
 -4 0 4 113.35 1.45
 -3 0 4 0.49 0.09
 -2 0 4 99.43 0.58
 -1 0 4 2.26 0.08
 0 0 4 210.79 1.03
 1 0 4 38.4 0.27
 2 0 4 443.73 2.23
 3 0 4 27.78 0.26
 4 0 4 45.68 0.73
 5 0 4 1.99 0.28
 -5 1 4 41.62 1.19
 -4 1 4 17.87 0.54
 -3 1 4 13.03 0.24
 -2 1 4 5.32 0.12
 -1 1 4 441.48 2.1
 0 1 4 5.64 0.1
 1 1 4 128.15 0.65
 2 1 4 88.09 0.56
 3 1 4 149.55 0.9
 4 1 4 4.46 0.2
 5 1 4 19.64 0.67
 -4 2 4 3.56 0.25
 -3 2 4 101.69 0.92
 -2 2 4 1.05 0.1
 -1 2 4 293.8 1.63
 0 2 4 77.07 0.46
 1 2 4 99.61 0.62
 2 2 4 6.64 0.15
 3 2 4 174.84 1.19
 4 2 4 8.77 0.29
 5 2 4 41.18 0.9
 -4 3 4 85.2 1.06
 -3 3 4 0.2 0.1
 -2 3 4 188.13 1.41
 -1 3 4 34.68 0.4
 0 3 4 15.38 0.21
 1 3 4 1.55 0.12
 2 3 4 158.97 1.13
 3 3 4 5.92 0.22
 4 3 4 112.38 1.17
 5 3 4 11.17 0.45
 -4 4 4 48.8 0.99
 -3 4 4 0.31 0.12
 -2 4 4 120.98 1.14
 -1 4 4 3.65 0.19
 0 4 4 62.18 0.84
 1 4 4 0.98 0.16
 2 4 4 200.92 1.65
 3 4 4 4.22 0.24
 4 4 4 50.87 0.74
 -3 5 4 29.15 0.54
 -2 5 4 0.34 0.12
 -1 5 4 114.24 1.89
 0 5 4 0.99 0.2
 1 5 4 156.04 2.3
 2 5 4 20.05 0.54
 3 5 4 38.01 0.63
 4 5 4 1.06 0.2
 -2 6 4 12.95 0.43
 -1 6 4 43.56 0.94
 0 6 4 7.08 0.41
 1 6 4 113.27 2.06
 2 6 4 2.7 0.3
 3 6 4 28.67 0.72
 0 7 4 27.68 1.25
 1 7 4 0.28 0.18
 -2 -6 5 15.18 2.2
 -1 -6 5 33.35 0.68
 0 -6 5 6.41 0.35
 1 -6 5 17.71 0.59
 -3 -5 5 69.37 1.48
 -2 -5 5 0.21 0.14
 -1 -5 5 81.95 0.98
 0 -5 5 15.3 0.45
 1 -5 5 107.91 1.15
 2 -5 5 0.47 0.14
 3 -5 5 42.31 1.37
 -3 -4 5 0.42 0.18
 -2 -4 5 79.2 0.88
 -1 -4 5 3.08 0.21
 0 -4 5 54.3 0.8
 1 -4 5 46.44 0.59
 2 -4 5 64.4 0.8
 3 -4 5 1.15 0.2
 4 -4 5 36.09 1.18
 -4 -3 5 38.4 0.8
 -3 -3 5 0.13 0.13
 -2 -3 5 99.48 0.9
 -1 -3 5 6.93 0.23
 0 -3 5 173.47 1.19
 1 -3 5 3 0.16
 2 -3 5 158.41 1.27
 3 -3 5 15.98 0.44
 4 -3 5 48.39 0.83
 -4 -2 5 2.72 0.28
 -3 -2 5 128.29 1.24
 -2 -2 5 41.51 0.47
 -1 -2 5 37.52 0.37
 0 -2 5 33.8 0.32
 1 -2 5 144.81 0.97
 2 -2 5 24.58 0.33
 3 -2 5 85.4 0.84
 4 -2 5 10.09 0.37
 -4 -1 5 1.07 0.2
 -3 -1 5 161.35 1.36
 -2 -1 5 0.33 0.07
 -1 -1 5 101.61 0.61
 0 -1 5 2.55 0.1
 1 -1 5 140.9 0.75
 2 -1 5 0.25 0.06
 3 -1 5 115.09 0.94
 4 -1 5 10.33 0.37
 5 -1 5 62.24 1.38
 -4 0 5 69.54 1.14
 -3 0 5 1.06 0.15
 -2 0 5 75.62 0.49
 -1 0 5 2.56 0.09
 0 0 5 238.91 1.16
 1 0 5 48.26 0.35
 2 0 5 93.61 0.61
 3 0 5 17.65 0.28
 4 0 5 81 1.08
 5 0 5 4.16 0.43
 -4 1 5 85.29 1.32
 -3 1 5 3.76 0.21
 -2 1 5 9.83 0.19
 -1 1 5 41.64 0.33
 0 1 5 524.32 2.34
 1 1 5 6.56 0.12
 2 1 5 145.01 0.84
 3 1 5 1.99 0.13
 4 1 5 36.43 0.82
 5 1 5 0.48 0.24
 -4 2 5 0.14 0.17
 -3 2 5 132.78 1.17
 -2 2 5 7.74 0.21
 -1 2 5 108.04 0.76
 0 2 5 21.86 0.21
 1 2 5 117.19 0.73
 2 2 5 33.93 0.4
 3 2 5 125.7 1.04
 4 2 5 4.44 0.24
 5 2 5 31.51 0.81
 -4 3 5 1.97 0.22
 -3 3 5 92.49 0.99
 -2 3 5 0.59 0.1
 -1 3 5 114.46 0.89
 0 3 5 1.41 0.1
 1 3 5 46.56 0.51
 2 3 5 20.87 0.32
 3 3 5 106.83 1.02
 4 3 5 0.87 0.16
 -3 4 5 28.72 0.53
 -2 4 5 81.11 0.96
 -1 4 5 5.74 0.27
 0 4 5 57.11 0.72
 1 4 5 1.49 0.15
 2 4 5 205.27 1.96
 3 4 5 3.46 0.23
 4 4 5 32.88 0.6
 -3 5 5 0.21 0.22
 -2 5 5 11.21 0.39
 -1 5 5 35.23 0.71
 0 5 5 136.87 1.88
 1 5 5 4.27 0.33
 2 5 5 99.48 1.39
 3 5 5 4.64 0.28
 4 5 5 4.35 0.69
 -2 6 5 5.11 0.86
 -1 6 5 68.28 1.1
 0 6 5 0.4 0.17
 1 6 5 90.83 1.58
 2 6 5 8.79 0.45
 3 6 5 36.06 1.65
 0 -6 6 38.8 1.37
 -2 -5 6 0.76 0.17
 -1 -5 6 32.49 0.63
 0 -5 6 0.13 0.14
 1 -5 6 43.32 0.73
 2 -5 6 13.62 0.43
 -3 -4 6 3.65 0.32
 -2 -4 6 5.25 0.29
 -1 -4 6 144.34 1.38
 0 -4 6 11.97 0.41
 1 -4 6 151.97 1.32
 2 -4 6 9 0.33
 3 -4 6 26.9 0.61
 -3 -3 6 0.72 0.18
 -2 -3 6 69.23 0.82
 -1 -3 6 26.92 0.48
 0 -3 6 116.32 1.05
 1 -3 6 7.07 0.25
 2 -3 6 90.46 0.96
 3 -3 6 1.17 0.18
 4 -3 6 12.86 0.56
 -4 -2 6 70.89 1.6
 -3 -2 6 4.49 0.29
 -2 -2 6 122.99 1.06
 -1 -2 6 0.38 0.1
 0 -2 6 63.79 0.52
 1 -2 6 3.42 0.16
 2 -2 6 51.82 0.57
 3 -2 6 0.14 0.11
 4 -2 6 121.6 1.45
 -4 -1 6 10.78 0.61
 -3 -1 6 140.42 1.54
 -2 -1 6 3.78 0.2
 -1 -1 6 4.31 0.16
 0 -1 6 1.57 0.1
 1 -1 6 254.74 1.5
 2 -1 6 1.51 0.11
 3 -1 6 71.98 0.83
 4 -1 6 5.64 0.37
 -4 0 6 4.2 0.36
 -3 0 6 23.4 0.53
 -2 0 6 24.93 0.32
 -1 0 6 109.31 0.69
 0 0 6 8.34 0.16
 1 0 6 368.32 1.84
 2 0 6 17.82 0.23
 3 0 6 14.14 0.35
 4 0 6 1.56 0.25
 -4 1 6 37.84 0.85
 -3 1 6 0.57 0.18
 -2 1 6 117.19 0.91
 -1 1 6 9.23 0.18
 0 1 6 268.6 1.39
 1 1 6 12.31 0.18
 2 1 6 68.61 0.64
 3 1 6 2.79 0.2
 4 1 6 32.48 0.76
 5 1 6 0.18 0.38
 -4 2 6 97.62 1.52
 -3 2 6 15.5 0.38
 -2 2 6 34.17 0.43
 -1 2 6 4.32 0.17
 0 2 6 134.28 0.9
 1 2 6 0.75 0.1
 2 2 6 20.36 0.33
 3 2 6 14.22 0.36
 4 2 6 119.77 1.69
 -3 3 6 168.81 1.56
 -2 3 6 6.25 0.3
 -1 3 6 8.85 0.27
 0 3 6 21.36 0.34
 1 3 6 171.57 1.34
 2 3 6 12.07 0.3
 3 3 6 158.13 1.59
 4 3 6 6.84 0.35
 -3 4 6 16.08 0.47
 -2 4 6 1.45 0.21
 -1 4 6 79.42 1.01
 0 4 6 1.5 0.16
 1 4 6 122.39 1.21
 2 4 6 15.71 0.46
 3 4 6 14.72 0.44
 4 4 6 1.13 0.22
 -2 5 6 78.44 1.04
 -1 5 6 8.05 0.4
 0 5 6 120.6 1.36
 1 5 6 14.86 0.44
 2 5 6 78.22 1.11
 3 5 6 0.64 0.2
 -1 6 6 23.59 1.01
 0 6 6 28.34 0.64
 1 6 6 7.02 0.38
 2 6 6 32.89 1.41
 -1 -5 7 7.05 0.9
 0 -5 7 130.59 1.65
 1 -5 7 1.53 0.65
 -2 -4 7 1.14 0.19
 -1 -4 7 99.11 1.19
 0 -4 7 0.13 0.15
 1 -4 7 77.95 1.06
 2 -4 7 2.71 0.23
 -3 -3 7 22.21 0.58
 -2 -3 7 14.14 0.41
 -1 -3 7 112.37 1.21
 0 -3 7 4.17 0.28
 1 -3 7 35.62 0.55
 2 -3 7 3.28 0.22
 3 -3 7 54.44 0.79
 -3 -2 7 2.36 0.27
 -2 -2 7 30.74 0.56
 -1 -2 7 15.94 0.37
 0 -2 7 48.03 0.57
 1 -2 7 22.73 0.39
 2 -2 7 188.26 1.58
 3 -2 7 6.08 0.29
 4 -2 7 25.25 1.29
 -3 -1 7 0.31 0.2
 -2 -1 7 58.87 0.75
 -1 -1 7 1.02 0.12
 0 -1 7 125.17 0.94
 1 -1 7 23.83 0.35
 2 -1 7 49.49 0.59
 3 -1 7 7.37 0.38
 4 -1 7 44.64 1.13
 -3 0 7 67.41 1.18
 -2 0 7 2.18 0.25
 -1 0 7 134.2 1
 0 0 7 0.27 0.08
 1 0 7 200.22 1.28
 2 0 7 1.33 0.18
 3 0 7 10.28 0.41
 4 0 7 0.12 0.22
 -3 1 7 38.9 0.83
 -2 1 7 58.88 0.77
 -1 1 7 50.13 0.51
 0 1 7 7.75 0.2
 1 1 7 116.56 0.92
 2 1 7 2.03 0.17
 3 1 7 17.08 0.55
 4 1 7 4.76 0.39
 -3 2 7 0.92 0.23
 -2 2 7 69.58 0.79
 -1 2 7 0.87 0.13
 0 2 7 72.78 0.69
 1 2 7 5.83 0.23
 2 2 7 171.48 1.42
 3 2 7 0.58 0.16
 4 2 7 57.55 1.1
 -3 3 7 0.86 0.17
 -2 3 7 40.35 0.73
 -1 3 7 1.79 0.19
 0 3 7 85.56 0.94
 1 3 7 43.69 0.61
 2 3 7 20.11 0.51
 3 3 7 9.19 0.41
 4 3 7 48.26 0.99
 -2 4 7 2.38 0.26
 -1 4 7 82.66 1.13
 0 4 7 6.62 0.31
 1 4 7 112.06 1.17
 2 4 7 5.96 0.37
 3 4 7 38.97 0.78
 -1 5 7 25.09 0.61
 0 5 7 3.58 0.25
 1 5 7 32.95 0.64
 2 5 7 0.28 0.18
 -1 -4 8 0.65 0.2
 0 -4 8 95.4 1.3
 1 -4 8 1.34 0.24
 -2 -3 8 0.19 0.16
 -1 -3 8 63.34 0.88
 0 -3 8 4 0.3
 1 -3 8 64.47 0.93
 2 -3 8 0.46 0.16
 -2 -2 8 3.86 0.3
 -1 -2 8 45.61 0.7
 0 -2 8 9.1 0.38
 1 -2 8 22.41 0.49
 2 -2 8 13.04 0.38
 3 -2 8 75.4 1.3
 -3 -1 8 8.44 0.54
 -2 -1 8 61.71 1.1
 -1 -1 8 4.48 0.26
 0 -1 8 97.47 0.97
 1 -1 8 0.2 0.12
 2 -1 8 92.96 1.4
 3 -1 8 0.46 0.21
 -3 0 8 1.77 0.34
 -2 0 8 62.59 1.09
 -1 0 8 15.27 0.42
 0 0 8 58.73 0.62
 1 0 8 0.37 0.15
 2 0 8 37.2 0.79
 3 0 8 3.24 0.32
 4 0 8 10.52 1.03
 -3 1 8 29.38 1.06
 -2 1 8 0.38 0.18
 -1 1 8 150.26 1.73
 0 1 8 33.86 0.57
 1 1 8 75.06 0.96
 2 1 8 3.63 0.28
 3 1 8 52.68 1.2
 4 1 8 0.14 0.34
 -3 2 8 20.75 1.53
 -2 2 8 0.24 0.19
 -1 2 8 20.38 0.46
 0 2 8 10.23 0.37
 1 2 8 38.25 0.56
 2 2 8 20.02 0.46
 3 2 8 51.82 1.02
 -2 3 8 75.65 1.11
 -1 3 8 0.55 0.15
 0 3 8 83.25 1.04
 1 3 8 6.98 0.32
 2 3 8 82.48 1.16
 3 3 8 13.61 0.5
 -1 4 8 1.08 0.2
 0 4 8 21.54 0.52
 1 4 8 19.2 0.5
 2 4 8 9.83 0.47
 0 5 8 19 0.83
 1 5 8 60.72 1.23
 -1 -3 9 1.41 0.26
 0 -3 9 12.52 0.6
 1 -3 9 2.41 0.33
 -1 -2 9 62.27 1.03
 0 -2 9 4.49 0.32
 1 -2 9 63.54 0.94
 2 -2 9 2.13 0.31
 -2 -1 9 1.53 0.28
 -1 -1 9 51.59 1
 0 -1 9 39.66 0.83
 1 -1 9 12.17 0.51
 2 -1 9 0.16 0.19
 3 -1 9 28.88 1
 -2 0 9 84.69 1.38
 -1 0 9 10.75 0.62
 0 0 9 85.72 1.34
 1 0 9 0.15 0.17
 2 0 9 23.05 0.66
 3 0 9 0.11 0.28
 -2 1 9 16.08 0.86
 -1 1 9 11.91 0.55
 0 1 9 4.25 0.35
 1 1 9 1.92 0.26
 2 1 9 83.76 1.58
 3 1 9 5.46 0.78
 -1 2 9 124.5 1.78
 0 2 9 2.05 0.3
 1 2 9 59.27 1.09
 2 2 9 2.23 0.33
 -1 3 9 61.41 1.11
 0 3 9 30.21 0.61
 1 3 9 0.99 0.18
 2 3 9 8.29 0.48
 0 4 9 43.55 0.92
 1 4 9 0.05 0.2
 1 -1 10 24.56 1.68
 -1 0 10 6.24 0.8
 0 0 10 11.77 0.69
 1 0 10 16.34 0.84
 0 1 10 108.64 1.66
 1 1 10 0.64 0.28
 0 2 10 11.22 0.63
 1 2 10 15.32 0.7

_iucr_refine_instructions_details
;
TITL p-1_a.res in P-1
    p-1_a.res
    created by SHELXL-2016/6 at 16:09:54 on 13-Dec-2016
REM Old TITL p-1 in P-1
REM SHELXT solution in P-1
REM R1 0.069, Rweak 0.008, Alpha 0.049, Orientation as input
REM Formula found by SHELXT: C2 O8 S2 Fe
REM #####
CELL 0.71073 4.5742 6.0059 8.0746 86.912 85.485 86.222
ZERR 1 0.0011 0.0014 0.0019 0.008 0.008 0.008
LATT 1
SFAC C H Fe O S
UNIT 2 10 1 8 2
DFIX 0.01 0.84 O4 H4b O4 H4a
SADI 0.01 O4 H4b O4 H4a
DANG 1.33 H4a H4b

L.S. 10
PLAN  10
SIZE 0.02 0.05 0.08
TEMP -173.02
BOND $H
LIST 4
MORE -1
CONF
fmap 2
acta
REM <olex2.extras>
REM <HklSrc "%.\\p-1_a.hkl">
REM </olex2.extras>

WGHT    0.070200    0.296600
FVAR       0.50345
FE1   3    1.000000    0.500000    0.500000    10.50000    0.00997    0.00518 =
         0.01341   -0.00053   -0.00136   -0.00054
S1    5    0.501114    0.758152    0.272314    11.00000    0.01045    0.00540 =
         0.01300   -0.00038   -0.00062    0.00007
O1    4    0.295858    0.578578    0.292454    11.00000    0.01315    0.00902 =
         0.01664   -0.00142   -0.00026   -0.00292
C1    1    0.722260    0.706545    0.088725    11.00000    0.01607    0.01306 =
         0.01563   -0.00098    0.00259   -0.00010
AFIX 137
H1A   2    0.600164    0.719542   -0.006177    11.00000   -1.50000
H1B   2    0.816725    0.555522    0.097172    11.00000   -1.50000
H1C   2    0.873202    0.815797    0.072810    11.00000   -1.50000
AFIX   0
O2    4    0.697048    0.749000    0.408559    11.00000    0.01304    0.00833 =
         0.01670   -0.00134   -0.00264    0.00000
O4    4    1.133047    0.747419    0.652193    11.00000    0.01041    0.00721 =
         0.02221   -0.00402   -0.00076   -0.00124
H4A   2    1.002688    0.840918    0.675247    11.00000   -1.50000
H4B   2    1.285418    0.808870    0.632901    11.00000   -1.50000
O3    4    0.356479    0.979406    0.251460    11.00000    0.01831    0.00794 =
         0.01970    0.00073   -0.00075    0.00363
HKLF 4




REM  p-1_a.res in P-1
REM R1 =  0.0302 for     924 Fo > 4sig(Fo)  and  0.0307 for all     963 data
REM     68 parameters refined using      4 restraints

END  
     
WGHT      0.0700      0.2967 

REM Highest difference peak  1.092,  deepest hole -0.571,  1-sigma level  0.149
Q1    1   1.0400  0.5137  0.3794  11.00000  0.05    1.09
Q2    1   0.5873  0.7566  0.1627  11.00000  0.05    0.95
Q3    1   0.5122  0.7486  0.3975  11.00000  0.05    0.81
Q4    1   1.1946  0.5017  0.5045  11.00000  0.05    0.77
Q5    1   0.2396  0.5258  0.4215  11.00000  0.05    0.61
Q6    1   0.7414  0.7518  0.2837  11.00000  0.05    0.51
Q7    1   0.0862  0.5402  0.1955  11.00000  0.05    0.41
Q8    1   1.1945  0.7520  0.5383  11.00000  0.05    0.38
Q9    1   0.2997  0.7330  0.3071  11.00000  0.05    0.36
Q10   1   0.8131  0.7758  0.0789  11.00000  0.05    0.35

  REM The information below was added by Olex2.
  REM
  REM R1 = 0.0302 for 924 Fo > 4sig(Fo) and 0.0307 for all 963 data
  REM n/a parameters refined using n/a restraints
  REM Highest difference peak 1.09, deepest hole -0.57
  REM Mean Shift 0, Max Shift 0.000.

  REM +++ Tabular Listing of Refinement Information +++
  REM R1_all = 0.0307
  REM R1_gt = 0.0302
  REM wR_ref = 0.1051
  REM GOOF = 1.139
  REM Shift_max = 0.000
  REM Shift_mean = 0
  REM Reflections_all = 963
  REM Reflections_gt = 924
  REM Parameters = n/a
  REM Hole = -0.57
  REM Peak = 1.09
  REM Flack = n/a

  
;
_olex2_date_sample_data_collection 2016-10-03
_olex2_exptl_crystal_mounting_method 'In polyether oil.'
_olex2_submission_original_sample_id IK_DKr_FeSMesSO32
_olex2_submission_special_instructions 'No special instructions were received'
