REM Solution 1  R1  0.170,  Alpha = 0.0209  in P2(1)/c
REM C91 O20
TITL P21c in P2(1)/c
CELL  0.71073  16.6171  16.4743  28.9642   90.000  103.218   90.000
ZERR   4   0.0014   0.0012   0.0034   0.000   0.004   0.000
LATT  1
SYMM -X, 1/2+Y, 1/2-Z
SFAC C H O
UNIT 364 352 80
TEMP 23.000
SIZE 0.073 0.132 0.221
L.S. 10
ACTA
CONF
OMIT 3   9  18
OMIT -3  9 12
OMIT 4 14 8
OMIT -14 9 18
SHEL 999 0.79
BOND $H
LIST 6
FMAP 2
PLAN 20
WGHT    0.054400    4.106300
FVAR       0.15635   0.67624   0.86605   0.11554
O1    3    0.751679   0.705714   0.310924  11.00000   0.01386   0.03247 =
      0.03089  -0.00411   0.00240   0.00115
O2    3    0.602626   0.526492   0.175293  11.00000   0.01557   0.02851 =
      0.02422  -0.00660   0.00440   0.00552
O3    3    0.448187   0.548677   0.168658  11.00000   0.01563   0.02305 =
      0.02354  -0.00668   0.00422   0.00009
O4    3    0.582851   0.937196   0.434541  11.00000   0.02434   0.02688 =
      0.02021  -0.00726   0.00088   0.00114
O5    3    0.736933   0.900782   0.445826  11.00000   0.02160   0.03401 =
      0.02647  -0.00948  -0.00331  -0.00267
O6    3    0.546314   0.969284   0.181461  11.00000   0.01485   0.02747 =
      0.02932   0.01048   0.00724   0.00175
O7    3    0.394089   1.008181   0.156772  11.00000   0.01595   0.02727 =
      0.02645   0.01049   0.00575   0.00403
O8    3    0.267489   0.637043   0.396016  11.00000   0.02336   0.02471 =
      0.02705   0.00308   0.01369  -0.00052
O9    3    0.414691   0.576889   0.411249  11.00000   0.02580   0.02319 =
      0.02369   0.00552   0.00981   0.00268
O10   3    0.249161   0.841474   0.262832  11.00000   0.01441   0.02571 =
      0.02511   0.00195   0.00579   0.00196
O11   3    0.254121   0.268069   0.310405  11.00000   0.01406   0.03334 =
      0.03132  -0.00175   0.00261   0.00033
O12   3   -0.050168   0.433672   0.172718  11.00000   0.01629   0.02199 =
      0.02558  -0.00632   0.00582  -0.00131
O13   3    0.103950   0.450391   0.175840  11.00000   0.01655   0.02764 =
      0.02367  -0.00432   0.00584   0.00489
O14   3    0.238291   0.067716   0.443042  11.00000   0.02721   0.03915 =
      0.02585  -0.00764  -0.00501  -0.00340
O15   3    0.083125   0.038220   0.434334  11.00000   0.03110   0.02968 =
      0.02007  -0.00608  -0.00052   0.00372
O16   3   -0.076721   0.405335   0.412794  11.00000   0.02903   0.02469 =
      0.02921   0.00906   0.01494   0.00571
O17   3   -0.222907   0.343930   0.401376  11.00000   0.02998   0.03082 =
      0.03839   0.01097   0.02305   0.00531
O18   3   -0.108553  -0.029032   0.158705  11.00000   0.01666   0.02488 =
      0.02502   0.00899   0.00675   0.00454
O19   3    0.043221   0.012460   0.180132  11.00000   0.01489   0.02694 =
      0.03092   0.01082   0.00870   0.00183
O20   3   -0.247934   0.135985   0.268699  11.00000   0.01410   0.02476 =
      0.02368   0.00083   0.00594   0.00157
C1    1    0.565854   0.794626   0.334183  11.00000   0.01633   0.01647 =
      0.01663   0.00198   0.00189  -0.00230
C2    1    0.542354   0.850016   0.365563  11.00000   0.01690   0.01863 =
      0.01881   0.00055   0.00299  -0.00041
AFIX  43
H2    2    0.486999   0.864194   0.361479  11.00000  -1.20000 
AFIX   0
C3    1    0.600304   0.883570   0.402299  11.00000   0.02354   0.01688 =
      0.01860   0.00005   0.00421  -0.00105
C4    1    0.685135   0.862968   0.408565  11.00000   0.02061   0.02205 =
      0.01964   0.00034  -0.00045  -0.00505
C5    1    0.708475   0.809162   0.377829  11.00000   0.01527   0.02188 =
      0.02287   0.00226   0.00094  -0.00116
AFIX  43
H5    2    0.763887   0.795252   0.381843  11.00000  -1.20000 
AFIX   0
C6    1    0.648808   0.774709   0.340077  11.00000   0.01707   0.01749 =
      0.01877   0.00236   0.00259  -0.00139
C7    1    0.677755   0.719237   0.307317  11.00000   0.01528   0.01960 =
      0.02254   0.00244   0.00239  -0.00025
C8    1    0.613502   0.678879   0.270488  11.00000   0.01606   0.01822 =
      0.01857   0.00080   0.00366   0.00028
C9    1    0.640253   0.623224   0.240172  11.00000   0.01367   0.02236 =
      0.02180   0.00097   0.00405   0.00302
AFIX  43
H9    2    0.696495   0.614855   0.242903  11.00000  -1.20000 
AFIX   0
C10   1    0.583819   0.581381   0.206695  11.00000   0.01913   0.01911 =
      0.01831   0.00044   0.00672   0.00402
C11   1    0.498111   0.593991   0.202777  11.00000   0.01693   0.01721 =
      0.01649   0.00025   0.00326  -0.00121
C12   1    0.471727   0.649578   0.232054  11.00000   0.01359   0.01826 =
      0.01912   0.00063   0.00462   0.00004
AFIX  43
H12   2    0.415478   0.658129   0.229190  11.00000  -1.20000 
AFIX   0
C13   1    0.529613   0.693121   0.266078  11.00000   0.01600   0.01623 =
      0.01652   0.00166   0.00438  -0.00003
C14   1    0.497499   0.759330   0.294376  11.00000   0.01289   0.01600 =
      0.01651  -0.00044   0.00278   0.00030
C15   1    0.465239   0.828308   0.259197  11.00000   0.01433   0.01650 =
      0.01536  -0.00280   0.00289  -0.00011
C16   1    0.521882   0.867552   0.237482  11.00000   0.01220   0.01996 =
      0.02000  -0.00083   0.00341   0.00142
AFIX  43
H16   2    0.577317   0.852660   0.245536  11.00000  -1.20000 
AFIX   0
C17   1    0.496438   0.927870   0.204380  11.00000   0.01519   0.01976 =
      0.01956  -0.00104   0.00572  -0.00215
C18   1    0.411742   0.949952   0.191006  11.00000   0.01781   0.01864 =
      0.01795   0.00147   0.00322   0.00174
C19   1    0.356303   0.912446   0.212693  11.00000   0.01339   0.02125 =
      0.02072  -0.00029   0.00324   0.00239
AFIX  43
H19   2    0.300790   0.927023   0.204436  11.00000  -1.20000 
AFIX   0
C20   1    0.382871   0.851974   0.247402  11.00000   0.01469   0.01774 =
      0.01748  -0.00240   0.00388  -0.00056
C21   1    0.321369   0.817816   0.271825  11.00000   0.01553   0.01854 =
      0.01786  -0.00388   0.00434  -0.00116
C22   1    0.350735   0.755546   0.308538  11.00000   0.01529   0.01757 =
      0.01782  -0.00285   0.00390  -0.00255
C23   1    0.293991   0.726380   0.334249  11.00000   0.01532   0.02088 =
      0.02056  -0.00360   0.00473  -0.00191
AFIX  43
H23   2    0.240506   0.747043   0.327935  11.00000  -1.20000 
AFIX   0
C24   1    0.316949   0.667957   0.368397  11.00000   0.02025   0.01880 =
      0.01941  -0.00403   0.00935  -0.00523
C25   1    0.398081   0.635049   0.376970  11.00000   0.02361   0.01645 =
      0.01689  -0.00206   0.00554  -0.00084
C26   1    0.453386   0.663386   0.351575  11.00000   0.01669   0.01818 =
      0.01946  -0.00258   0.00444   0.00050
AFIX  43
H26   2    0.506235   0.641314   0.357053  11.00000  -1.20000 
AFIX   0
C27   1    0.430763   0.725030   0.317640  11.00000   0.01614   0.01621 =
      0.01596  -0.00454   0.00384  -0.00208
C28   1    0.497414   0.953775   0.431684  11.00000   0.02522   0.03114 =
      0.02199  -0.00571   0.00560   0.00166
AFIX 137
H28A  2    0.492405   0.991314   0.456223  11.00000  -1.50000 
H28B  2    0.469366   0.904201   0.435626  11.00000  -1.50000 
H28C  2    0.473093   0.976945   0.401284  11.00000  -1.50000 
AFIX   0
C29   1    0.822906   0.881163   0.453982  11.00000   0.02105   0.04205 =
      0.02825  -0.00607  -0.00324  -0.00608
AFIX 137
H29A  2    0.853049   0.911312   0.480763  11.00000  -1.50000 
H29B  2    0.842995   0.894913   0.426426  11.00000  -1.50000 
H29C  2    0.830364   0.824099   0.460229  11.00000  -1.50000 
AFIX   0
C30   1    0.687981   0.508349   0.180271  11.00000   0.01750   0.02824 =
      0.02426  -0.00218   0.00772   0.00543
AFIX 137
H30A  2    0.693958   0.467997   0.157378  11.00000  -1.50000 
H30B  2    0.710556   0.488101   0.211639  11.00000  -1.50000 
H30C  2    0.716963   0.556720   0.175152  11.00000  -1.50000 
AFIX   0
C31   1    0.361703   0.562790   0.160740  11.00000   0.01505   0.04106 =
      0.04005  -0.02069   0.00498  -0.00357
AFIX 137
H31A  2    0.332897   0.526722   0.136495  11.00000  -1.50000 
H31B  2    0.349876   0.617964   0.150816  11.00000  -1.50000 
H31C  2    0.343937   0.553215   0.189561  11.00000  -1.50000 
AFIX   0
C32   1    0.633085   0.955930   0.196434  11.00000   0.01551   0.03850 =
      0.04528   0.01775   0.00949   0.00042
AFIX 137
H32A  2    0.661437   0.989521   0.178182  11.00000  -1.50000 
H32B  2    0.645046   0.899912   0.191778  11.00000  -1.50000 
H32C  2    0.651245   0.969357   0.229433  11.00000  -1.50000 
AFIX   0
C33   1    0.309141   1.030467   0.140388  11.00000   0.01675   0.02724 =
      0.02988   0.00896   0.00221   0.00398
AFIX 137
H33A  2    0.304279   1.071135   0.116167  11.00000  -1.50000 
H33B  2    0.288647   1.051667   0.166372  11.00000  -1.50000 
H33C  2    0.277488   0.983556   0.127627  11.00000  -1.50000 
AFIX   0
C34   1    0.190802   0.677931   0.394363  11.00000   0.02423   0.03176 =
      0.03075   0.00059   0.01566  -0.00019
AFIX 137
H34A  2    0.163209   0.653008   0.416436  11.00000  -1.50000 
H34B  2    0.156433   0.674204   0.362918  11.00000  -1.50000 
H34C  2    0.201372   0.733982   0.402629  11.00000  -1.50000 
AFIX   0
C35   1    0.499339   0.552774   0.427251  11.00000   0.02934   0.02784 =
      0.02294   0.00610   0.00713   0.00591
AFIX 137
H35A  2    0.504333   0.515529   0.453244  11.00000  -1.50000 
H35B  2    0.532840   0.599766   0.437481  11.00000  -1.50000 
H35C  2    0.517558   0.526869   0.401750  11.00000  -1.50000 
AFIX   0
C36   1    0.031986   0.285495   0.267767  11.00000   0.01625   0.01541 =
      0.01689   0.00289   0.00494   0.00026
C37   1   -0.025897   0.331058   0.235029  11.00000   0.01423   0.01864 =
      0.01980   0.00186   0.00499   0.00032
AFIX  43
H37   2   -0.082099   0.324008   0.233093  11.00000  -1.20000 
AFIX   0
C38   1    0.000250   0.386411   0.205621  11.00000   0.01606   0.01631 =
      0.01883   0.00190   0.00380  -0.00138
C39   1    0.085872   0.396544   0.207846  11.00000   0.01878   0.01807 =
      0.01914   0.00242   0.00678   0.00385
C40   1    0.142420   0.352937   0.240318  11.00000   0.01294   0.02253 =
      0.02227   0.00460   0.00447   0.00346
AFIX  43
H40   2    0.198601   0.359814   0.242111  11.00000  -1.20000 
AFIX   0
C41   1    0.116020   0.297716   0.271029  11.00000   0.01503   0.01790 =
      0.01889   0.00341   0.00422   0.00069
C42   1    0.179981   0.255663   0.307022  11.00000   0.01536   0.02036 =
      0.02196   0.00519   0.00303   0.00003
C43   1    0.151013   0.199787   0.339855  11.00000   0.01682   0.01963 =
      0.01919   0.00413   0.00173  -0.00175
C44   1    0.210549   0.162570   0.376527  11.00000   0.01755   0.02401 =
      0.02205   0.00380  -0.00061  -0.00110
AFIX  43
H44   2    0.266295   0.174510   0.379906  11.00000  -1.20000 
AFIX   0
C45   1    0.186595   0.108776   0.407277  11.00000   0.02452   0.02516 =
      0.01833   0.00210  -0.00244  -0.00376
C46   1    0.101404   0.091559   0.402164  11.00000   0.02820   0.02011 =
      0.01770   0.00046   0.00249   0.00136
C47   1    0.043629   0.127870   0.366361  11.00000   0.01952   0.02075 =
      0.01963   0.00208   0.00251   0.00042
AFIX  43
H47   2   -0.012122   0.116003   0.363026  11.00000  -1.20000 
AFIX   0
C48   1    0.067671   0.182353   0.334949  11.00000   0.01850   0.01734 =
      0.01582   0.00336   0.00237  -0.00144
C49   1   -0.000500   0.219343   0.295854  11.00000   0.01253   0.01682 =
      0.01738   0.00060   0.00316   0.00013
C50   1   -0.065680   0.254202   0.319972  11.00000   0.01706   0.01686 =
      0.01727  -0.00199   0.00524  -0.00195
C51   1   -0.041440   0.316798   0.353071  11.00000   0.01985   0.01819 =
      0.02035  -0.00065   0.00673   0.00133
AFIX  43
H51   2    0.011180   0.339050   0.357317  11.00000  -1.20000 
AFIX   0
C52   1   -0.094947   0.345794   0.379465  11.00000   0.02638   0.01764 =
      0.02112   0.00147   0.00884   0.00191
C53   1   -0.175474   0.312220   0.372843  11.00000   0.02495   0.02213 =
      0.02449   0.00069   0.01356  -0.00142
C54   1   -0.200066   0.252734   0.339422  11.00000   0.01839   0.02054 =
      0.02523  -0.00119   0.00884   0.00067
AFIX  43
H54   2   -0.253294   0.231695   0.334435  11.00000  -1.20000 
AFIX   0
C55   1   -0.145371   0.223146   0.312530  11.00000   0.01704   0.01786 =
      0.01840  -0.00246   0.00559  -0.00239
C56   1   -0.175869   0.160231   0.276401  11.00000   0.01639   0.01835 =
      0.01758  -0.00410   0.00473  -0.00193
C57   1   -0.116353   0.126438   0.250476  11.00000   0.01407   0.01689 =
      0.01746  -0.00255   0.00335  -0.00072
C58   1   -0.143868   0.065739   0.216040  11.00000   0.01289   0.01988 =
      0.01919  -0.00161   0.00376   0.00130
AFIX  43
H58   2   -0.199157   0.050272   0.208921  11.00000  -1.20000 
AFIX   0
C59   1   -0.089791   0.029238   0.192910  11.00000   0.01736   0.01712 =
      0.01742   0.00092   0.00317   0.00158
C60   1   -0.005280   0.052817   0.204302  11.00000   0.01570   0.01851 =
      0.01989  -0.00132   0.00628  -0.00274
C61   1    0.021090   0.113203   0.237154  11.00000   0.01267   0.01939 =
      0.02095  -0.00045   0.00395   0.00129
AFIX  43
H61   2    0.076254   0.129076   0.243960  11.00000  -1.20000 
AFIX   0
C62   1   -0.034040   0.151224   0.260562  11.00000   0.01497   0.01523 =
      0.01585  -0.00209   0.00277  -0.00042
C63   1   -0.136714   0.422553   0.167041  11.00000   0.01673   0.04302 =
      0.04400  -0.02327   0.00812  -0.00656
AFIX 137
H63A  2   -0.165883   0.459618   0.143499  11.00000  -1.50000 
H63B  2   -0.151512   0.432700   0.196674  11.00000  -1.50000 
H63C  2   -0.151196   0.367832   0.157116  11.00000  -1.50000 
AFIX   0
C64   1    0.189401   0.464361   0.177944  11.00000   0.01940   0.03079 =
      0.02593  -0.00044   0.00926   0.00627
AFIX 137
H64A  2    0.194843   0.502414   0.153741  11.00000  -1.50000 
H64B  2    0.215473   0.414116   0.173013  11.00000  -1.50000 
H64C  2    0.215414   0.485960   0.208496  11.00000  -1.50000 
AFIX   0
C65   1    0.324878   0.080979   0.449216  11.00000   0.02573   0.04807 =
      0.02610  -0.00387  -0.00483  -0.00938
AFIX 137
H65A  2    0.354407   0.048389   0.475066  11.00000  -1.50000 
H65B  2    0.337074   0.137262   0.456044  11.00000  -1.50000 
H65C  2    0.341464   0.066217   0.420696  11.00000  -1.50000 
AFIX   0
C66   1   -0.002539   0.023571   0.431848  11.00000   0.03329   0.03442 =
      0.02242  -0.00500   0.00482   0.00581
AFIX 137
H66A  2   -0.008039  -0.014121   0.456216  11.00000  -1.50000 
H66B  2   -0.027885   0.001289   0.401366  11.00000  -1.50000 
H66C  2   -0.029230   0.073707   0.436293  11.00000  -1.50000 
AFIX   0
C67   1    0.007679   0.431270   0.426335  11.00000   0.02959   0.02666 =
      0.02196   0.00490   0.00696   0.00534
AFIX 137
H67A  2    0.013606   0.470670   0.451307  11.00000  -1.50000 
H67B  2    0.023543   0.455123   0.399502  11.00000  -1.50000 
H67C  2    0.042453   0.385399   0.437271  11.00000  -1.50000 
AFIX   0
C68   1   -0.300239   0.304769   0.400537  11.00000   0.02911   0.03750 =
      0.03790   0.00813   0.02165   0.00522
AFIX 137
H68A  2   -0.326701   0.330872   0.422750  11.00000  -1.50000 
H68B  2   -0.290651   0.248697   0.409055  11.00000  -1.50000 
H68C  2   -0.335167   0.308506   0.369244  11.00000  -1.50000 
AFIX   0
C69   1   -0.193519  -0.051640   0.142990  11.00000   0.01680   0.02308 =
      0.02529   0.00488   0.00229   0.00297
AFIX 137
H69A  2   -0.198952  -0.091587   0.118338  11.00000  -1.50000 
H69B  2   -0.225726  -0.004651   0.130974  11.00000  -1.50000 
H69C  2   -0.212913  -0.073856   0.169108  11.00000  -1.50000 
AFIX   0
C70   1    0.129781   0.028804   0.192349  11.00000   0.01579   0.03966 =
      0.04569   0.01869   0.01177   0.00234
AFIX 137
H70A  2    0.156936  -0.003204   0.172736  11.00000  -1.50000 
H70B  2    0.151628   0.015258   0.225053  11.00000  -1.50000 
H70C  2    0.139047   0.085360   0.187482  11.00000  -1.50000 
AFIX   0
REM  Tol 1
 
PART 1 21
SAME 0.005 C77 > C83
DELU 0.005 C71 > C91
SIMU 0.02 C71 > C91
C71   1    0.076719   0.792152   0.465119  21.00000   0.05234   0.04769 =
      0.06207   0.02175   0.03820   0.02698
C72   1    0.031903   0.808325   0.419105  21.00000   0.06375   0.05299 =
      0.06346   0.03553   0.04225   0.03112
AFIX  43
H72   2    0.041463   0.856613   0.404608  21.00000  -1.20000 
AFIX   0
C73   1   -0.026060   0.754854   0.394550  21.00000   0.08410   0.06644 =
      0.04465   0.02278   0.03422   0.03093
AFIX  43
H73   2   -0.053895   0.766515   0.363599  21.00000  -1.20000 
AFIX   0
C74   1   -0.042747   0.684102   0.415886  21.00000   0.09733   0.06517 =
      0.05082   0.00682   0.03967   0.00342
AFIX  43
H74   2   -0.082337   0.648023   0.399694  21.00000  -1.20000 
AFIX   0
C75   1   -0.000056   0.667464   0.461507  21.00000   0.11328   0.04731 =
      0.04903   0.01786   0.04726   0.00712
AFIX  43
H75   2   -0.011121   0.619796   0.476107  21.00000  -1.20000 
AFIX   0
C76   1    0.058847   0.720403   0.485871  21.00000   0.07907   0.05124 =
      0.04492   0.02014   0.03455   0.02175
AFIX  43
H76   2    0.087008   0.707885   0.516637  21.00000  -1.20000 
AFIX   0
C91   1    0.142356   0.848329   0.491008  21.00000   0.05226   0.07227 =
      0.09771   0.02091   0.03581   0.01885
AFIX 137
H91A  2    0.129144   0.865260   0.520120  21.00000  -1.50000 
H91B  2    0.145427   0.895024   0.471657  21.00000  -1.50000 
H91C  2    0.194650   0.820782   0.497876  21.00000  -1.50000 
AFIX   0
PART 2 -21
REM  Tol 1b
SAME 0.005 C77 > C83
DELU 0.005 C93 > C99
SIMU 0.02 C93 > C99
C93   1    0.007691   0.741739   0.425105 -21.00000   0.03177   0.06536 =
      0.03285   0.00514   0.01174   0.02029
C94   1    0.047492   0.815950   0.423111 -21.00000   0.04819   0.05693 =
      0.04590   0.02996   0.03412   0.03175
AFIX  43
H94   2    0.035022   0.846098   0.395238 -21.00000  -1.20000 
AFIX   0
C95   1    0.104815   0.845393   0.461570 -21.00000   0.05327   0.03611 =
      0.08284   0.01080   0.03239   0.01055
AFIX  43
H95   2    0.127176   0.896868   0.460286 -21.00000  -1.20000 
AFIX   0
C96   1    0.129154   0.799034   0.501868 -21.00000   0.04764   0.04958 =
      0.04780  -0.00676   0.01433   0.00413
AFIX  43
H96   2    0.169817   0.817739   0.527252 -21.00000  -1.20000 
AFIX   0
C97   1    0.092547   0.724581   0.504145 -21.00000   0.04867   0.05750 =
      0.03317   0.01753   0.01488   0.00916
AFIX  43
H97   2    0.108231   0.693017   0.531340 -21.00000  -1.20000 
AFIX   0
C98   1    0.032799   0.696593   0.466343 -21.00000   0.04091   0.04088 =
      0.04672   0.01304   0.01669   0.00109
AFIX  43
H98   2    0.008713   0.646203   0.468528 -21.00000  -1.20000 
AFIX   0
C99   1   -0.053818   0.709761   0.383144 -21.00000   0.04499   0.13412 =
      0.05405  -0.01605   0.00125   0.02310
AFIX 137
H99A  2   -0.075327   0.753800   0.362245 -21.00000  -1.50000 
H99B  2   -0.098240   0.683781   0.393584 -21.00000  -1.50000 
H99C  2   -0.027418   0.671150   0.366636 -21.00000  -1.50000 
AFIX   0
PART 0
 
PART 3 31
REM  Tol 2
DELU 0.005 C77 > C83
C77   1    0.275364   0.372142   0.498531  31.00000   0.03822   0.02905 =
      0.03241  -0.00335   0.00413  -0.00064
C78   1    0.311414   0.438762   0.481188  31.00000   0.03908   0.03920 =
      0.02843  -0.00003   0.00247  -0.00429
AFIX  43
H78   2    0.353904   0.430513   0.465648  31.00000  -1.20000 
AFIX   0
C79   1    0.284672   0.516616   0.486864  31.00000   0.07223   0.03148 =
      0.03503   0.00624  -0.00425  -0.00514
AFIX  43
H79   2    0.309590   0.560516   0.475510  31.00000  -1.20000 
AFIX   0
C80   1    0.221085   0.529432   0.509335  31.00000   0.08675   0.03291 =
      0.03348  -0.00727  -0.00862   0.02203
AFIX  43
H80   2    0.203043   0.581948   0.513067  31.00000  -1.20000 
AFIX   0
C81   1    0.184291   0.464584   0.526246  31.00000   0.05007   0.06276 =
      0.03228  -0.01310   0.00373   0.01745
AFIX  43
H81   2    0.141185   0.473132   0.541272  31.00000  -1.20000 
AFIX   0
C82   1    0.211580   0.386725   0.520836  31.00000   0.04335   0.04078 =
      0.03605  -0.00603   0.00935  -0.00511
AFIX  43
H82   2    0.186518   0.343189   0.532443  31.00000  -1.20000 
AFIX   0
C83   1    0.304386   0.287648   0.492590  31.00000   0.06368   0.03324 =
      0.06833  -0.00294   0.02796   0.00309
AFIX 137
H83A  2    0.339924   0.288008   0.470709  31.00000  -1.50000 
H83B  2    0.257571   0.253375   0.480542  31.00000  -1.50000 
H83C  2    0.334288   0.267335   0.522708  31.00000  -1.50000 
AFIX   0
PART 4 -31
REM  Tol 2b
SAME 0.01 C84 > C90
DELU 0.003 C77' > C83'
SIMU 0.01 C77' > C83'
C77'  1    0.282721   0.403091   0.479264 -31.00000   0.05968   0.07471 =
      0.04677   0.00666  -0.00635  -0.00422
C78'  1    0.267207   0.484711   0.485577 -31.00000   0.07529   0.07181 =
      0.05942   0.00058  -0.02128  -0.01066
AFIX  43
H78'  2    0.296421   0.523874   0.473021 -31.00000  -1.20000 
AFIX   0
C79'  1    0.208755   0.508947   0.510346 -31.00000   0.08308   0.05048 =
      0.06042  -0.00051  -0.01994  -0.00317
AFIX  43
H79'  2    0.196015   0.563644   0.512204 -31.00000  -1.20000 
AFIX   0
C80'  1    0.169967   0.451612   0.532040 -31.00000   0.07635   0.05329 =
      0.06122   0.00221  -0.01732   0.00254
AFIX  43
H80'  2    0.133262   0.467421   0.550244 -31.00000  -1.20000 
AFIX   0
C81'  1    0.185868   0.370500   0.526621 -31.00000   0.06924   0.05449 =
      0.06003   0.00359   0.00526   0.00054
AFIX  43
H81'  2    0.158792   0.331436   0.540636 -31.00000  -1.20000 
AFIX   0
C82'  1    0.241329   0.347026   0.500707 -31.00000   0.06879   0.07421 =
      0.05081   0.00143   0.00404  -0.00641
AFIX  43
H82'  2    0.251330   0.292009   0.497486 -31.00000  -1.20000 
AFIX   0
C83'  1    0.345738   0.377379   0.453418 -31.00000   0.06483   0.12534 =
      0.05750   0.01663   0.00548   0.00676
AFIX 137
H83D  2    0.381087   0.337155   0.471668 -31.00000  -1.50000 
H83E  2    0.378175   0.423471   0.448560 -31.00000  -1.50000 
H83F  2    0.318785   0.354851   0.423279 -31.00000  -1.50000 
AFIX   0
PART 0
 
REM  Tol 3
SAME 0.01 C77 > C83
DELU 0.005 C84 > C90
C84   1    0.511086   0.247217   0.428202  11.00000   0.04181   0.06251 =
      0.03747  -0.00055   0.01427   0.01884
C85   1    0.537697   0.294362   0.468571  11.00000   0.04827   0.05080 =
      0.04900   0.01415   0.02273   0.01144
AFIX  43
H85   2    0.515818   0.346028   0.469949  11.00000  -1.20000 
AFIX   0
C86   1    0.596959   0.264896   0.507067  11.00000   0.05810   0.06670 =
      0.03844   0.02050   0.01743   0.02137
AFIX  43
H86   2    0.613899   0.296944   0.533971  11.00000  -1.20000 
AFIX   0
C87   1    0.630310   0.189484   0.505621  11.00000   0.05228   0.06816 =
      0.04877  -0.01275   0.01248   0.01210
AFIX  43
H87   2    0.670152   0.170306   0.531263  11.00000  -1.20000 
AFIX   0
C88   1    0.604387   0.141997   0.465791  11.00000   0.06291   0.04025 =
      0.07405   0.00187   0.03366   0.01064
AFIX  43
H88   2    0.626914   0.090630   0.464379  11.00000  -1.20000 
AFIX   0
C89   1    0.545107   0.170787   0.428136  11.00000   0.06165   0.05162 =
      0.04646   0.01978   0.02713   0.03118
AFIX  43
H89   2    0.527378   0.137659   0.401772  11.00000  -1.20000 
AFIX   0
C90   1    0.449404   0.278123   0.386306  11.00000   0.05599   0.13481 =
      0.05480  -0.02837   0.00132   0.02384
AFIX 137
H90A  2    0.423975   0.233185   0.367365  11.00000  -1.50000 
H90B  2    0.476582   0.312267   0.367713  11.00000  -1.50000 
H90C  2    0.407855   0.308858   0.396807  11.00000  -1.50000 
 
HKLF 4
 
REM  P21c in P2(1)/c
REM R1 =  0.0420 for  12749 Fo > 4sig(Fo)  and  0.0576 for all  16388 data
REM   1150 parameters refined using    291 restraints
 
END  
     
WGHT      0.0544      4.1067 
REM Highest difference peak  0.313,  deepest hole -0.220,  1-sigma level  0.044
Q1    1   -0.017800   0.184400   0.278000  11.00000   0.05000      0.31 
Q2    1    0.485200   0.184100   0.401800  11.00000   0.05000      0.30 
Q3    1    0.470200   0.325800   0.414200  11.00000   0.05000      0.29 
Q4    1    0.354100   0.832400   0.256800  11.00000   0.05000      0.29 
Q5    1    0.564300   0.242300   0.476300  11.00000   0.05000      0.28 
Q6    1   -0.146500   0.149500   0.260200  11.00000   0.05000      0.28 
Q7    1   -0.176600   0.245400   0.320100  11.00000   0.05000      0.28 
Q8    1    0.145900   0.274500   0.289200  11.00000   0.05000      0.28 
Q9    1    0.482700   0.795300   0.277100  11.00000   0.05000      0.27 
Q10   1    0.390200   0.738000   0.311200  11.00000   0.05000      0.27 
Q11   1    0.529700   0.777700   0.314100  11.00000   0.05000      0.27 
Q12   1    0.038900   0.203000   0.315500  11.00000   0.05000      0.27 
Q13   1    0.497700   0.861100   0.259200  11.00000   0.05000      0.26 
Q14   1   -0.162200   0.197600   0.293500  11.00000   0.05000      0.26 
Q15   1    0.181300   0.172500   0.352000  11.00000   0.05000      0.26 
Q16   1    0.642400   0.697100   0.288700  11.00000   0.05000      0.26 
Q17   1    0.339400   0.786000   0.291500  11.00000   0.05000      0.26 
Q18   1   -0.075900   0.134600   0.260700  11.00000   0.05000      0.25 
Q19   1   -0.035000   0.236300   0.307300  11.00000   0.05000      0.25 
Q20   1    0.014700   0.257700   0.282000  11.00000   0.05000      0.25 
