TITL P21c in P2(1)/c
CELL 0.71073  10.6456  11.0330  19.9214  90.000  98.938  90.000
ZERR    4.00   0.0009   0.0009   0.0016   0.000   0.001   0.000
LATT 1
SYMM -X, 0.5+Y, 0.5-Z
SFAC C  H  N  O  Si
UNIT 104 132 4 12 4
L.S. 30
BOND $H
FMAP 2
PLAN 10
TEMP -173.000
ACTA
CONF
WGHT    0.039700    1.309200
FVAR       0.14585
N1    3    0.202243    0.826081    0.442995    11.00000    0.02829    0.01825 =
         0.01656    0.00107    0.00966    0.00192
O1    4    0.002548    0.741260    0.435484    11.00000    0.03348    0.02475 =
         0.04162   -0.00249    0.02371   -0.00218
O2    4    0.119291    1.379660    0.371134    11.00000    0.03464    0.01517 =
         0.02667   -0.00075    0.01061    0.00432
O3    4    0.192012    1.273510    0.267123    11.00000    0.03176    0.01774 =
         0.02084    0.00360    0.00999    0.00225
SI1   5    0.290447    0.628230    0.235263    11.00000    0.01874    0.01540 =
         0.01667   -0.00135    0.00483    0.00070
C1    1    0.209950    0.873017    0.511981    11.00000    0.03804    0.02430 =
         0.01525    0.00173    0.00914    0.00519
AFIX  23
H1A   2    0.293382    0.851109    0.538468    11.00000   -1.20000
H1B   2    0.142880    0.834815    0.534133    11.00000   -1.20000
AFIX   0
C2    1    0.194018    1.009990    0.512663    11.00000    0.08105    0.02513 =
         0.01786    0.00057    0.01428    0.00942
AFIX  23
H2A   2    0.112208    1.028501    0.528219    11.00000   -1.20000
H2B   2    0.262594    1.044109    0.546677    11.00000   -1.20000
AFIX   0
C3    1    0.196191    1.074791    0.445659    11.00000    0.02676    0.01974 =
         0.01733   -0.00070    0.00433    0.00107
C4    1    0.158212    1.196727    0.440462    11.00000    0.02569    0.01980 =
         0.01884   -0.00491    0.00697   -0.00005
AFIX  43
H4    2    0.132054    1.235487    0.478572    11.00000   -1.20000
AFIX   0
C5    1    0.158061    1.261621    0.381067    11.00000    0.01939    0.01496 =
         0.02306   -0.00180    0.00448   -0.00032
C6    1    0.197767    1.204242    0.324707    11.00000    0.01681    0.01872 =
         0.01853    0.00193    0.00417   -0.00246
C7    1    0.236827    1.084596    0.330044    11.00000    0.01745    0.01831 =
         0.01784   -0.00186    0.00606   -0.00080
AFIX  43
H7    2    0.265338    1.046629    0.292343    11.00000   -1.20000
AFIX   0
C8    1    0.235249    1.018039    0.389985    11.00000    0.01769    0.01757 =
         0.01775   -0.00082    0.00321   -0.00033
C9    1    0.278465    0.885730    0.396364    11.00000    0.02025    0.01703 =
         0.01460    0.00096    0.00499    0.00087
C10   1    0.421691    0.882990    0.423769    11.00000    0.02140    0.02296 =
         0.02066   -0.00444    0.00098    0.00084
AFIX  23
H10A  2    0.465909    0.938790    0.396299    11.00000   -1.20000
H10B  2    0.435317    0.913442    0.471089    11.00000   -1.20000
AFIX   0
C11   1    0.481266    0.757713    0.422687    11.00000    0.02270    0.02528 =
         0.02274   -0.00066   -0.00041    0.00529
AFIX  23
H11A  2    0.573890    0.763019    0.438758    11.00000   -1.20000
H11B  2    0.443788    0.702796    0.453534    11.00000   -1.20000
AFIX   0
C12   1    0.457410    0.707352    0.350522    11.00000    0.01908    0.01961 =
         0.02202   -0.00061    0.00409    0.00347
AFIX  23
H12A  2    0.500584    0.628054    0.349473    11.00000   -1.20000
H12B  2    0.493945    0.763241    0.319798    11.00000   -1.20000
AFIX   0
C13   1    0.314409    0.691523    0.325198    11.00000    0.01863    0.01562 =
         0.01684    0.00137    0.00564    0.00124
AFIX  13
H13   2    0.281524    0.630050    0.355015    11.00000   -1.20000
AFIX   0
C14   1    0.238706    0.810294    0.330142    11.00000    0.01967    0.01543 =
         0.01523    0.00048    0.00414    0.00190
AFIX  13
H14   2    0.244214    0.862162    0.289537    11.00000   -1.20000
AFIX   0
C15   1    0.098871    0.782167    0.334054    11.00000    0.01937    0.02092 =
         0.02486   -0.00331    0.00520    0.00288
AFIX  23
H15A  2    0.042477    0.846060    0.311173    11.00000   -1.20000
H15B  2    0.073658    0.703109    0.312585    11.00000   -1.20000
AFIX   0
C16   1    0.092504    0.778874    0.409190    11.00000    0.02584    0.01379 =
         0.02879   -0.00114    0.01203    0.00397
C17   1    0.330953    0.750259    0.175702    11.00000    0.02436    0.02029 =
         0.01402   -0.00407    0.00325   -0.00340
C18   1    0.244518    0.842622    0.151811    11.00000    0.03031    0.02223 =
         0.01832   -0.00214    0.00558    0.00034
AFIX  43
H18   2    0.164547    0.845616    0.167289    11.00000   -1.20000
AFIX   0
C19   1    0.273234    0.929796    0.106032    11.00000    0.04369    0.02219 =
         0.01872   -0.00023    0.00154   -0.00043
AFIX  43
H19   2    0.213503    0.991726    0.090901    11.00000   -1.20000
AFIX   0
C20   1    0.389564    0.926132    0.082448    11.00000    0.04627    0.02902 =
         0.01713    0.00048    0.00469   -0.01503
AFIX  43
H20   2    0.409061    0.984941    0.050790    11.00000   -1.20000
AFIX   0
C21   1    0.476628    0.836592    0.105266    11.00000    0.03092    0.03985 =
         0.02030   -0.00354    0.00676   -0.01359
AFIX  43
H21   2    0.556243    0.834071    0.089387    11.00000   -1.20000
AFIX   0
C22   1    0.447969    0.750188    0.151409    11.00000    0.02395    0.02958 =
         0.01762   -0.00354    0.00318   -0.00433
AFIX  43
H22   2    0.509054    0.689600    0.166888    11.00000   -1.20000
AFIX   0
C23   1    0.399989    0.496683    0.231422    11.00000    0.02809    0.02004 =
         0.02630   -0.00281    0.00665    0.00338
AFIX 137
H23A  2    0.381438    0.433797    0.263215    11.00000   -1.50000
H23B  2    0.488250    0.523658    0.243848    11.00000   -1.50000
H23C  2    0.387663    0.463685    0.185192    11.00000   -1.50000
AFIX   0
C24   1    0.124750    0.573982    0.205773    11.00000    0.02449    0.02539 =
         0.02394   -0.00245    0.00377   -0.00336
AFIX 137
H24A  2    0.121104    0.532827    0.161918    11.00000   -1.50000
H24B  2    0.066520    0.643329    0.200719    11.00000   -1.50000
H24C  2    0.099741    0.517344    0.239218    11.00000   -1.50000
AFIX   0
C25   1    0.220145    1.213209    0.207731    11.00000    0.02935    0.02597 =
         0.02012    0.00371    0.01000    0.00335
AFIX 137
H25A  2    0.308945    1.186277    0.215394    11.00000   -1.50000
H25B  2    0.206668    1.269168    0.169076    11.00000   -1.50000
H25C  2    0.164113    1.142831    0.197993    11.00000   -1.50000
AFIX   0
C26   1    0.088169    1.441780    0.429350    11.00000    0.04701    0.01874 =
         0.03348   -0.00535    0.01517    0.00446
AFIX 137
H26A  2    0.020937    1.397498    0.447409    11.00000   -1.50000
H26B  2    0.058439    1.523767    0.416303    11.00000   -1.50000
H26C  2    0.163797    1.446656    0.464244    11.00000   -1.50000
HKLF 4
 
REM  P21c in P2(1)/c
REM R1 =  0.0327 for   3857 Fo > 4sig(Fo)  and  0.0362 for all   4228 data
REM    284 parameters refined using      0 restraints
 
END  
     
WGHT      0.0397      1.3092 
REM Highest difference peak  0.360,  deepest hole -0.270,  1-sigma level  0.039
Q1    1   0.1802  1.0489  0.5496  11.00000  0.05    0.36
Q2    1   0.3097  0.6979  0.1997  11.00000  0.05    0.32
Q3    1   0.3033  0.6727  0.2836  11.00000  0.05    0.30
Q4    1   0.2623  0.8461  0.3641  11.00000  0.05    0.28
Q5    1   0.3489  0.8816  0.4072  11.00000  0.05    0.27
Q6    1   0.2538  0.9561  0.3908  11.00000  0.05    0.27
Q7    1   0.3532  0.5597  0.2350  11.00000  0.05    0.27
Q8    1   0.2762  0.7515  0.3304  11.00000  0.05    0.25
Q9    1   0.0544  0.7398  0.4702  11.00000  0.05    0.23
Q10   1   0.3847  0.7015  0.3348  11.00000  0.05    0.22
