
data_Breit_TB13_85
 
_audit_creation_method            'SHELXL-2014/7'
_shelx_SHELXL_version_number      '2014/7'
_chemical_name_systematic         ?
_chemical_name_common             ?
_chemical_melting_point           ?
_chemical_formula_moiety          ?
_chemical_formula_sum
 'C29 H24 F6 O2' 
_chemical_formula_weight          518.48

loop_
 _atom_type_symbol
 _atom_type_description
 _atom_type_scat_dispersion_real
 _atom_type_scat_dispersion_imag
 _atom_type_scat_source
 'C'  'C'   0.0033   0.0016
 'International Tables Vol C Tables 4.2.6.8 and 6.1.1.4'
 'H'  'H'   0.0000   0.0000
 'International Tables Vol C Tables 4.2.6.8 and 6.1.1.4'
 'O'  'O'   0.0106   0.0060
 'International Tables Vol C Tables 4.2.6.8 and 6.1.1.4'
 'F'  'F'   0.0171   0.0103
 'International Tables Vol C Tables 4.2.6.8 and 6.1.1.4'
 
_space_group_crystal_system       monoclinic
_space_group_IT_number            5
_space_group_name_H-M_alt         'C 2'
_space_group_name_Hall            'C 2y'
 
_shelx_space_group_comment
;
The symmetry employed for this shelxl refinement is uniquely defined
by the following loop, which should always be used as a source of
symmetry information in preference to the above space-group names.
They are only intended as comments.
;
 
loop_
 _space_group_symop_operation_xyz
 'x, y, z'
 '-x, y, -z'
 'x+1/2, y+1/2, z'
 '-x+1/2, y+1/2, -z'
 
_cell_length_a                    23.892(2)
_cell_length_b                    5.4785(5)
_cell_length_c                    21.9446(18)
_cell_angle_alpha                 90
_cell_angle_beta                  120.422(4)
_cell_angle_gamma                 90
_cell_volume
_cell_formula_units_Z             4
_cell_measurement_temperature     100(2)
_cell_measurement_reflns_used     9231
_cell_measurement_theta_min       5.373   
_cell_measurement_theta_max       48.824
 
_exptl_crystal_description        plate
_exptl_crystal_colour             colourless
_exptl_crystal_density_meas       ?
_exptl_crystal_density_method     ?
_exptl_crystal_density_diffrn     1.390          
_exptl_crystal_F_000              1072
_exptl_transmission_factor_min    ?
_exptl_transmission_factor_max    ?
_exptl_crystal_size_max           0.330
_exptl_crystal_size_mid           0.040
_exptl_crystal_size_min           0.040
_exptl_absorpt_coefficient_mu     0.117
_shelx_estimated_absorpt_T_min    0.963
_shelx_estimated_absorpt_T_max    0.995
_exptl_absorpt_correction_type    multi-scan
_exptl_absorpt_correction_T_min   0.6014
_exptl_absorpt_correction_T_max   0.7458
_exptl_absorpt_process_details    'SADABS-2016/2'
_exptl_absorpt_special_details    ?
_diffrn_ambient_temperature       100(2)
_diffrn_radiation_wavelength      0.71073
_diffrn_radiation_type            MoK\a
_diffrn_source                    'INCOATEC Mo Microsource'
_diffrn_measurement_device_type   'Bruker SMART APEXII QUAZAR'
_diffrn_measurement_method        'Omega and Phi scans'
_diffrn_detector_area_resol_mean  ?
_diffrn_reflns_number             28439
_diffrn_reflns_av_unetI/netI      0.0520
_diffrn_reflns_av_R_equivalents   0.0459
_diffrn_reflns_limit_h_min        -32
_diffrn_reflns_limit_h_max        32
_diffrn_reflns_limit_k_min        -7
_diffrn_reflns_limit_k_max        7
_diffrn_reflns_limit_l_min        -27
_diffrn_reflns_limit_l_max        29
_diffrn_reflns_theta_min          1.076
_diffrn_reflns_theta_max          28.942
_diffrn_reflns_theta_full         25.242
_diffrn_measured_fraction_theta_max   0.989
_diffrn_measured_fraction_theta_full  1.000
_diffrn_reflns_Laue_measured_fraction_max    0.989
_diffrn_reflns_Laue_measured_fraction_full   1.000
_diffrn_reflns_point_group_measured_fraction_max   0.957
_diffrn_reflns_point_group_measured_fraction_full  0.997
_reflns_number_total              6295
_reflns_number_gt                 4672
_reflns_threshold_expression      'I > 2\s(I)'
_reflns_Friedel_coverage          0.758
_reflns_Friedel_fraction_max      0.918
_reflns_Friedel_fraction_full     0.993
_reflns_special_details
;
 _reflns_Friedel_fraction is defined as the number of unique
 Friedel pairs measured divided by the number that would be
 possible theoretically, ignoring centric projections and
 systematic absences.
;
 
_computing_data_collection        'Bruker APEX2'
_computing_cell_refinement        'SAINT V8.37A'
_computing_data_reduction         'SAINT V8.37A'
_computing_structure_solution     'SHELXT-2014/2  (Sheldrick, 2014)'
_computing_structure_refinement 'SHELXL-2014/7 (Sheldrick, 2014)'
_computing_molecular_graphics     ?
_computing_publication_material   ?
_refine_special_details           ?
_refine_ls_structure_factor_coef  Fsqd
_refine_ls_matrix_type            full
_refine_ls_weighting_scheme       calc
_refine_ls_weighting_details
'w=1/[\s^2^(Fo^2^)+(0.0603P)^2^] where P=(Fo^2^+2Fc^2^)/3'
_atom_sites_solution_primary      ?
_atom_sites_solution_secondary    ?
_atom_sites_solution_hydrogens    geom
_refine_ls_hydrogen_treatment     constr
_refine_ls_extinction_method      'SHELXL-2014/7 (Sheldrick 2014'
_refine_ls_extinction_coef        0.0026(7)
_refine_ls_extinction_expression
 'Fc^*^=kFc[1+0.001xFc^2^\l^3^/sin(2\q)]^-1/4^'
_refine_ls_abs_structure_details
;
 Flack x determined using 1554 quotients [(I+)-(I-)]/[(I+)+(I-)]
 (Parsons, Flack and Wagner, Acta Cryst. B69 (2013) 249-259).
;
_refine_ls_abs_structure_Flack    0.0(3)
_chemical_absolute_configuration  ad
_refine_ls_number_reflns          6295
_refine_ls_number_parameters      413
_refine_ls_number_restraints      321
_refine_ls_R_factor_all           0.0699
_refine_ls_R_factor_gt            0.0460
_refine_ls_wR_factor_ref          0.1124
_refine_ls_wR_factor_gt           0.1031
_refine_ls_goodness_of_fit_ref    1.041
_refine_ls_restrained_S_all       1.059
_refine_ls_shift/su_max           0.000
_refine_ls_shift/su_mean          0.000
 
loop_
 _atom_site_label
 _atom_site_type_symbol
 _atom_site_fract_x
 _atom_site_fract_y
 _atom_site_fract_z
 _atom_site_U_iso_or_equiv
 _atom_site_adp_type
 _atom_site_occupancy
 _atom_site_site_symmetry_order  
 _atom_site_calc_flag
 _atom_site_refinement_flags_posn
 _atom_site_refinement_flags_adp
 _atom_site_refinement_flags_occupancy
 _atom_site_disorder_assembly
 _atom_site_disorder_group
O1 O 0.51761(9) 0.1956(4) 0.63749(10) 0.0348(5) Uani 1 1 d . . . . .
O2 O 0.64129(9) -0.0143(3) 0.78080(9) 0.0328(4) Uani 1 1 d . . . . .
C1 C 0.54218(12) 0.2901(5) 0.69492(13) 0.0244(5) Uani 1 1 d . . . . .
C2 C 0.61160(11) 0.3860(5) 0.73237(13) 0.0228(5) Uani 1 1 d D U . . .
H2 H 0.6137 0.5500 0.7534 0.027 Uiso 0.882(6) 1 calc R U P A 1
H2A H 0.6116 0.5406 0.7566 0.027 Uiso 0.118(6) 1 calc R U P A 2
C4 C 0.60434(13) 0.6042(5) 0.62608(13) 0.0290(6) Uani 1 1 d D U . . .
H4A H 0.5572 0.5702 0.5984 0.035 Uiso 0.882(6) 1 calc R U P A 1
H4B H 0.6105 0.7616 0.6509 0.035 Uiso 0.882(6) 1 calc R U P A 1
H4C H 0.5600 0.5351 0.6000 0.035 Uiso 0.118(6) 1 calc R U P A 2
H4D H 0.6013 0.7694 0.6425 0.035 Uiso 0.118(6) 1 calc R U P A 2
C5 C 0.63053(13) 0.6261(6) 0.57592(14) 0.0337(6) Uani 1 1 d . . . . .
H5A H 0.6761 0.6823 0.6031 0.040 Uiso 1 1 calc R U . . .
H5B H 0.6305 0.4620 0.5570 0.040 Uiso 1 1 calc R U . . .
C6 C 0.59287(13) 0.7987(6) 0.51429(13) 0.0323(6) Uani 1 1 d . . . . .
H6A H 0.5911 0.9623 0.5324 0.039 Uiso 1 1 calc R U . . .
H6B H 0.5478 0.7386 0.4848 0.039 Uiso 1 1 calc R U . . .
C7 C 0.62467(12) 0.8179(5) 0.46955(13) 0.0253(5) Uani 1 1 d . . . . .
C8 C 0.61653(12) 0.6352(5) 0.42206(13) 0.0283(6) Uani 1 1 d . . . . .
H8 H 0.5881 0.5029 0.4148 0.034 Uiso 1 1 calc R U . . .
C9 C 0.64939(13) 0.6430(5) 0.38490(14) 0.0309(6) Uani 1 1 d . . . . .
H9 H 0.6435 0.5167 0.3525 0.037 Uiso 1 1 calc R U . . .
C10 C 0.69082(13) 0.8362(5) 0.39540(13) 0.0309(6) Uani 1 1 d . . . . .
H10 H 0.7135 0.8421 0.3703 0.037 Uiso 1 1 calc R U . . .
C11 C 0.69917(13) 1.0196(5) 0.44217(13) 0.0299(6) Uani 1 1 d . . . . .
H11 H 0.7276 1.1518 0.4493 0.036 Uiso 1 1 calc R U . . .
C12 C 0.66604(12) 1.0110(5) 0.47890(13) 0.0274(6) Uani 1 1 d . . . . .
H12 H 0.6717 1.1386 0.5108 0.033 Uiso 1 1 calc R U . . .
C3 C 0.6382(2) 0.4010(7) 0.6809(2) 0.0266(10) Uani 0.882(6) 1 d D U P A 1
H3 H 0.6291 0.2420 0.6552 0.032 Uiso 0.882(6) 1 calc R U P A 1
C13 C 0.71057(14) 0.4391(7) 0.72142(15) 0.0335(9) Uani 0.882(6) 1 d D U P A 1
H13 H 0.7266 0.5916 0.7443 0.040 Uiso 0.882(6) 1 calc R U P A 1
C14 C 0.75323(19) 0.2726(10) 0.7271(2) 0.0479(11) Uani 0.882(6) 1 d D U P A 1
H14A H 0.7387 0.1183 0.7048 0.058 Uiso 0.882(6) 1 calc R U P A 1
H14B H 0.7984 0.3075 0.7534 0.058 Uiso 0.882(6) 1 calc R U P A 1
C3A C 0.6465(17) 0.444(6) 0.6905(16) 0.0266(10) Uani 0.118(6) 1 d D U P A 2
H3A H 0.6865 0.5390 0.7226 0.032 Uiso 0.118(6) 1 calc R U P A 2
C13A C 0.6678(10) 0.210(4) 0.6740(11) 0.030(5) Uani 0.118(6) 1 d D U P A 2
H13A H 0.6354 0.0984 0.6429 0.036 Uiso 0.118(6) 1 calc R U P A 2
C14A C 0.7295(12) 0.148(6) 0.7003(15) 0.038(6) Uani 0.118(6) 1 d D U P A 2
H14C H 0.7630 0.2551 0.7316 0.046 Uiso 0.118(6) 1 calc R U P A 2
H14D H 0.7402 -0.0043 0.6879 0.046 Uiso 0.118(6) 1 calc R U P A 2
C15 C 0.50652(12) 0.2993(5) 0.73506(12) 0.0243(5) Uani 1 1 d . . . . .
C16 C 0.51742(12) 0.4801(5) 0.78441(13) 0.0271(6) Uani 1 1 d . . . . .
H16 H 0.5472 0.6083 0.7924 0.033 Uiso 1 1 calc R U . . .
C17 C 0.48511(12) 0.4743(5) 0.82194(13) 0.0305(6) Uani 1 1 d . . . . .
H17 H 0.4918 0.6000 0.8548 0.037 Uiso 1 1 calc R U . . .
C18 C 0.44291(12) 0.2834(5) 0.81119(14) 0.0302(6) Uani 1 1 d D U . . .
C19 C 0.43079(13) 0.1058(5) 0.76132(14) 0.0303(6) Uani 1 1 d . . . . .
H19 H 0.4010 -0.0221 0.7534 0.036 Uiso 1 1 calc R U . . .
C20 C 0.46212(12) 0.1143(5) 0.72284(13) 0.0274(6) Uani 1 1 d . . . . .
H20 H 0.4533 -0.0063 0.6880 0.033 Uiso 1 1 calc R U . . .
C21 C 0.40923(15) 0.2692(7) 0.85300(17) 0.0428(7) Uani 1 1 d D U . . .
F1B F 0.4367(3) 0.4029(13) 0.9110(3) 0.0676(17) Uani 0.852(18) 1 d D U P B 1
F2B F 0.4097(3) 0.0384(8) 0.8753(3) 0.0573(13) Uani 0.852(18) 1 d D U P B 1
F3B F 0.3468(2) 0.3288(15) 0.8157(3) 0.0666(16) Uani 0.852(18) 1 d D U P B 1
F4B F 0.3450(9) 0.245(7) 0.8083(19) 0.060(7) Uani 0.148(18) 1 d D U P B 2
F5B F 0.4074(19) 0.493(4) 0.879(2) 0.068(7) Uani 0.148(18) 1 d D U P B 2
F6B F 0.4256(16) 0.101(6) 0.8981(16) 0.065(7) Uani 0.148(18) 1 d D U P B 2
C22 C 0.65303(12) 0.2027(5) 0.79058(13) 0.0244(5) Uani 1 1 d . . . . .
C23 C 0.71147(12) 0.2887(5) 0.85688(13) 0.0252(5) Uani 1 1 d . . . . .
C24 C 0.76733(12) 0.1455(5) 0.88529(13) 0.0290(6) Uani 1 1 d . . . . .
H24 H 0.7666 -0.0055 0.8637 0.035 Uiso 1 1 calc R U . . .
C25 C 0.82357(13) 0.2215(5) 0.94454(14) 0.0318(6) Uani 1 1 d . . . . .
H25 H 0.8618 0.1254 0.9629 0.038 Uiso 1 1 calc R U . . .
C26 C 0.82407(12) 0.4385(5) 0.97726(13) 0.0304(6) Uani 1 1 d D U . . .
C27 C 0.76840(13) 0.5788(5) 0.95115(14) 0.0317(6) Uani 1 1 d . . . . .
H27 H 0.7685 0.7239 0.9749 0.038 Uiso 1 1 calc R U . . .
C28 C 0.71239(13) 0.5066(5) 0.89004(13) 0.0277(6) Uani 1 1 d . . . . .
H28 H 0.6746 0.6059 0.8708 0.033 Uiso 1 1 calc R U . . .
C29 C 0.88475(14) 0.5219(6) 1.04127(14) 0.0362(7) Uani 1 1 d D U . . .
F1A F 0.93863(13) 0.4412(14) 1.0423(2) 0.0610(15) Uani 0.860(17) 1 d D U P C 1
F2A F 0.8903(3) 0.4355(11) 1.1008(2) 0.0478(11) Uani 0.860(17) 1 d D U P C 1
F3A F 0.8896(3) 0.7590(6) 1.0477(3) 0.0772(18) Uani 0.860(17) 1 d D U P C 1
F4A F 0.8758(14) 0.736(4) 1.0673(15) 0.053(6) Uani 0.140(17) 1 d D U P C 2
F5A F 0.9293(11) 0.587(8) 1.0285(11) 0.058(7) Uani 0.140(17) 1 d D U P C 2
F6A F 0.9027(17) 0.374(5) 1.0939(14) 0.049(6) Uani 0.140(17) 1 d D U P C 2
 
loop_
 _atom_site_aniso_label
 _atom_site_aniso_U_11
 _atom_site_aniso_U_22
 _atom_site_aniso_U_33
 _atom_site_aniso_U_23
 _atom_site_aniso_U_13
 _atom_site_aniso_U_12
O1 0.0343(11) 0.0410(12) 0.0276(10) -0.0077(9) 0.0144(9) -0.0099(9)
O2 0.0379(11) 0.0220(10) 0.0351(10) 0.0006(8) 0.0159(9) -0.0029(9)
C1 0.0276(13) 0.0204(12) 0.0225(12) 0.0003(11) 0.0107(11) -0.0012(11)
C2 0.0244(13) 0.0210(12) 0.0207(12) -0.0002(10) 0.0096(11) -0.0009(10)
C4 0.0322(14) 0.0292(14) 0.0278(13) 0.0044(11) 0.0167(12) 0.0038(12)
C5 0.0364(15) 0.0373(16) 0.0324(14) 0.0094(13) 0.0211(13) 0.0081(13)
C6 0.0274(14) 0.0419(16) 0.0276(14) 0.0084(13) 0.0140(12) 0.0057(13)
C7 0.0229(13) 0.0275(14) 0.0207(12) 0.0068(11) 0.0076(10) 0.0046(11)
C8 0.0260(13) 0.0262(14) 0.0258(13) 0.0032(11) 0.0081(11) -0.0018(11)
C9 0.0361(15) 0.0264(15) 0.0241(13) 0.0015(11) 0.0108(12) 0.0046(13)
C10 0.0293(14) 0.0392(17) 0.0257(13) 0.0078(12) 0.0150(12) 0.0068(13)
C11 0.0271(14) 0.0284(15) 0.0301(14) 0.0047(12) 0.0115(12) -0.0005(11)
C12 0.0311(14) 0.0230(13) 0.0250(13) -0.0008(11) 0.0119(11) 0.0031(12)
C3 0.0287(18) 0.0272(19) 0.0263(17) 0.0023(15) 0.0158(16) 0.0013(15)
C13 0.0301(17) 0.043(2) 0.0274(16) 0.0090(15) 0.0149(14) -0.0011(15)
C14 0.038(2) 0.071(3) 0.045(2) 0.024(2) 0.0282(19) 0.014(2)
C3A 0.0287(18) 0.0272(19) 0.0263(17) 0.0023(15) 0.0158(16) 0.0013(15)
C13A 0.038(9) 0.030(8) 0.023(9) 0.001(7) 0.016(8) 0.004(7)
C14A 0.040(10) 0.038(13) 0.039(13) 0.007(10) 0.022(9) 0.009(9)
C15 0.0228(13) 0.0255(13) 0.0203(12) 0.0025(11) 0.0078(11) 0.0022(11)
C16 0.0257(13) 0.0257(14) 0.0267(13) -0.0014(11) 0.0109(11) -0.0001(11)
C17 0.0299(14) 0.0328(15) 0.0254(13) -0.0040(12) 0.0116(12) 0.0039(13)
C18 0.0272(14) 0.0362(15) 0.0271(13) 0.0042(12) 0.0137(12) 0.0067(13)
C19 0.0284(14) 0.0299(15) 0.0328(14) 0.0028(12) 0.0155(12) -0.0030(12)
C20 0.0278(14) 0.0257(14) 0.0254(13) -0.0030(11) 0.0110(12) -0.0030(12)
C21 0.0433(18) 0.0506(19) 0.0422(17) 0.0029(15) 0.0273(15) 0.0044(15)
F1B 0.081(3) 0.091(3) 0.056(2) -0.028(2) 0.053(2) -0.024(3)
F2B 0.071(3) 0.063(2) 0.060(2) 0.0143(18) 0.050(2) 0.0050(18)
F3B 0.0453(17) 0.099(4) 0.070(3) 0.025(3) 0.0394(16) 0.0298(19)
F4B 0.044(7) 0.082(17) 0.071(9) -0.004(10) 0.041(6) 0.001(7)
F5B 0.092(15) 0.061(8) 0.087(15) -0.018(8) 0.074(13) -0.008(8)
F6B 0.062(14) 0.091(13) 0.056(11) 0.024(10) 0.040(10) 0.025(10)
C22 0.0277(14) 0.0242(13) 0.0232(13) -0.0001(10) 0.0142(12) -0.0010(11)
C23 0.0291(14) 0.0235(12) 0.0239(12) 0.0036(11) 0.0140(11) 0.0006(11)
C24 0.0346(15) 0.0245(14) 0.0283(13) 0.0015(11) 0.0161(13) 0.0035(12)
C25 0.0292(15) 0.0335(16) 0.0303(15) 0.0074(12) 0.0133(13) 0.0058(12)
C26 0.0315(14) 0.0311(15) 0.0251(13) 0.0049(12) 0.0118(12) -0.0019(12)
C27 0.0399(16) 0.0261(14) 0.0282(14) -0.0017(12) 0.0166(13) -0.0017(12)
C28 0.0301(14) 0.0237(13) 0.0266(13) 0.0027(11) 0.0125(12) 0.0037(11)
C29 0.0346(16) 0.0369(17) 0.0324(15) 0.0048(13) 0.0136(13) -0.0037(13)
F1A 0.0309(13) 0.103(4) 0.0414(16) -0.012(2) 0.0124(11) -0.0081(16)
F2A 0.048(2) 0.062(2) 0.0227(12) 0.0024(14) 0.0101(12) -0.0093(17)
F3A 0.069(3) 0.0337(15) 0.057(3) 0.0079(14) -0.0207(19) -0.0179(14)
F4A 0.052(10) 0.037(8) 0.048(11) 0.000(7) 0.009(7) 0.006(7)
F5A 0.040(8) 0.090(17) 0.046(9) 0.000(10) 0.023(7) -0.017(9)
F6A 0.053(12) 0.045(10) 0.034(8) 0.013(7) 0.012(7) 0.006(7)
 
_geom_special_details
;
 All esds (except the esd in the dihedral angle between two l.s. planes)
 are estimated using the full covariance matrix.  The cell esds are taken
 into account individually in the estimation of esds in distances, angles
 and torsion angles; correlations between esds in cell parameters are only
 used when they are defined by crystal symmetry.  An approximate (isotropic)
 treatment of cell esds is used for estimating esds involving l.s. planes.
;
 
loop_
 _geom_bond_atom_site_label_1
 _geom_bond_atom_site_label_2
 _geom_bond_distance
 _geom_bond_site_symmetry_2
 _geom_bond_publ_flag
O1 C1 1.205(3) . ?
O2 C22 1.215(3) . ?
C1 C15 1.505(3) . ?
C1 C2 1.524(3) . ?
C2 C22 1.530(4) . ?
C2 C3 1.554(4) . ?
C2 C3A 1.55(2) . ?
C2 H2 1.0000 . ?
C2 H2A 1.0000 . ?
C4 C5 1.521(3) . ?
C4 C3A 1.53(2) . ?
C4 C3 1.535(4) . ?
C4 H4A 0.9900 . ?
C4 H4B 0.9900 . ?
C4 H4C 0.9900 . ?
C4 H4D 0.9900 . ?
C5 C6 1.517(4) . ?
C5 H5A 0.9900 . ?
C5 H5B 0.9900 . ?
C6 C7 1.519(3) . ?
C6 H6A 0.9900 . ?
C6 H6B 0.9900 . ?
C7 C8 1.386(4) . ?
C7 C12 1.390(4) . ?
C8 C9 1.390(3) . ?
C8 H8 0.9500 . ?
C9 C10 1.387(4) . ?
C9 H9 0.9500 . ?
C10 C11 1.377(4) . ?
C10 H10 0.9500 . ?
C11 C12 1.387(4) . ?
C11 H11 0.9500 . ?
C12 H12 0.9500 . ?
C3 C13 1.506(5) . ?
C3 H3 1.0000 . ?
C13 C14 1.326(5) . ?
C13 H13 0.9500 . ?
C14 H14A 0.9500 . ?
C14 H14B 0.9500 . ?
C3A C13A 1.49(2) . ?
C3A H3A 1.0000 . ?
C13A C14A 1.33(2) . ?
C13A H13A 0.9500 . ?
C14A H14C 0.9500 . ?
C14A H14D 0.9500 . ?
C15 C20 1.391(4) . ?
C15 C16 1.392(4) . ?
C16 C17 1.385(3) . ?
C16 H16 0.9500 . ?
C17 C18 1.387(4) . ?
C17 H17 0.9500 . ?
C18 C19 1.381(4) . ?
C18 C21 1.498(4) . ?
C19 C20 1.384(3) . ?
C19 H19 0.9500 . ?
C20 H20 0.9500 . ?
C21 F6B 1.260(16) . ?
C21 F1B 1.319(4) . ?
C21 F3B 1.329(5) . ?
C21 F4B 1.345(17) . ?
C21 F2B 1.354(5) . ?
C21 F5B 1.366(14) . ?
C22 C23 1.494(4) . ?
C23 C28 1.392(4) . ?
C23 C24 1.394(4) . ?
C24 C25 1.378(4) . ?
C24 H24 0.9500 . ?
C25 C26 1.386(4) . ?
C25 H25 0.9500 . ?
C26 C27 1.384(4) . ?
C26 C29 1.490(4) . ?
C27 C28 1.389(4) . ?
C27 H27 0.9500 . ?
C28 H28 0.9500 . ?
C29 F5A 1.280(13) . ?
C29 F6A 1.293(16) . ?
C29 F3A 1.306(4) . ?
C29 F2A 1.332(4) . ?
C29 F1A 1.350(4) . ?
C29 F4A 1.367(16) . ?
 
loop_
 _geom_angle_atom_site_label_1
 _geom_angle_atom_site_label_2
 _geom_angle_atom_site_label_3
 _geom_angle
 _geom_angle_site_symmetry_1
 _geom_angle_site_symmetry_3
 _geom_angle_publ_flag
O1 C1 C15 120.4(2) . . ?
O1 C1 C2 122.2(2) . . ?
C15 C1 C2 117.2(2) . . ?
C1 C2 C22 107.0(2) . . ?
C1 C2 C3 111.1(2) . . ?
C22 C2 C3 108.2(2) . . ?
C1 C2 C3A 120.9(15) . . ?
C22 C2 C3A 108.3(9) . . ?
C1 C2 H2 110.2 . . ?
C22 C2 H2 110.2 . . ?
C3 C2 H2 110.2 . . ?
C1 C2 H2A 106.6 . . ?
C22 C2 H2A 106.6 . . ?
C3A C2 H2A 106.6 . . ?
C5 C4 C3A 113.2(9) . . ?
C5 C4 C3 112.2(2) . . ?
C5 C4 H4A 109.2 . . ?
C3 C4 H4A 109.2 . . ?
C5 C4 H4B 109.2 . . ?
C3 C4 H4B 109.2 . . ?
H4A C4 H4B 107.9 . . ?
C5 C4 H4C 108.9 . . ?
C3A C4 H4C 108.9 . . ?
C5 C4 H4D 108.9 . . ?
C3A C4 H4D 108.9 . . ?
H4C C4 H4D 107.7 . . ?
C6 C5 C4 114.7(2) . . ?
C6 C5 H5A 108.6 . . ?
C4 C5 H5A 108.6 . . ?
C6 C5 H5B 108.6 . . ?
C4 C5 H5B 108.6 . . ?
H5A C5 H5B 107.6 . . ?
C5 C6 C7 110.8(2) . . ?
C5 C6 H6A 109.5 . . ?
C7 C6 H6A 109.5 . . ?
C5 C6 H6B 109.5 . . ?
C7 C6 H6B 109.5 . . ?
H6A C6 H6B 108.1 . . ?
C8 C7 C12 118.6(2) . . ?
C8 C7 C6 120.7(2) . . ?
C12 C7 C6 120.5(2) . . ?
C7 C8 C9 120.9(2) . . ?
C7 C8 H8 119.6 . . ?
C9 C8 H8 119.6 . . ?
C10 C9 C8 119.6(2) . . ?
C10 C9 H9 120.2 . . ?
C8 C9 H9 120.2 . . ?
C11 C10 C9 120.2(2) . . ?
C11 C10 H10 119.9 . . ?
C9 C10 H10 119.9 . . ?
C10 C11 C12 119.9(3) . . ?
C10 C11 H11 120.0 . . ?
C12 C11 H11 120.0 . . ?
C11 C12 C7 120.8(2) . . ?
C11 C12 H12 119.6 . . ?
C7 C12 H12 119.6 . . ?
C13 C3 C4 110.7(3) . . ?
C13 C3 C2 110.4(3) . . ?
C4 C3 C2 111.1(2) . . ?
C13 C3 H3 108.2 . . ?
C4 C3 H3 108.2 . . ?
C2 C3 H3 108.2 . . ?
C14 C13 C3 123.9(4) . . ?
C14 C13 H13 118.0 . . ?
C3 C13 H13 118.0 . . ?
C13 C14 H14A 120.0 . . ?
C13 C14 H14B 120.0 . . ?
H14A C14 H14B 120.0 . . ?
C13A C3A C4 115(2) . . ?
C13A C3A C2 108.7(19) . . ?
C4 C3A C2 111.4(16) . . ?
C13A C3A H3A 107.3 . . ?
C4 C3A H3A 107.3 . . ?
C2 C3A H3A 107.3 . . ?
C14A C13A C3A 124(3) . . ?
C14A C13A H13A 118.1 . . ?
C3A C13A H13A 118.1 . . ?
C13A C14A H14C 120.0 . . ?
C13A C14A H14D 120.0 . . ?
H14C C14A H14D 120.0 . . ?
C20 C15 C16 119.5(2) . . ?
C20 C15 C1 117.7(2) . . ?
C16 C15 C1 122.8(2) . . ?
C17 C16 C15 120.3(2) . . ?
C17 C16 H16 119.8 . . ?
C15 C16 H16 119.8 . . ?
C16 C17 C18 119.5(2) . . ?
C16 C17 H17 120.3 . . ?
C18 C17 H17 120.3 . . ?
C19 C18 C17 120.6(2) . . ?
C19 C18 C21 119.1(3) . . ?
C17 C18 C21 120.3(3) . . ?
C18 C19 C20 119.9(2) . . ?
C18 C19 H19 120.1 . . ?
C20 C19 H19 120.1 . . ?
C19 C20 C15 120.1(2) . . ?
C19 C20 H20 119.9 . . ?
C15 C20 H20 119.9 . . ?
F1B C21 F3B 108.2(4) . . ?
F6B C21 F4B 107(2) . . ?
F1B C21 F2B 105.1(3) . . ?
F3B C21 F2B 104.7(4) . . ?
F6B C21 F5B 112.8(14) . . ?
F4B C21 F5B 97.2(16) . . ?
F6B C21 C18 118.0(15) . . ?
F1B C21 C18 113.8(3) . . ?
F3B C21 C18 113.2(4) . . ?
F4B C21 C18 109.1(19) . . ?
F2B C21 C18 111.2(3) . . ?
F5B C21 C18 110.8(9) . . ?
O2 C22 C23 119.9(2) . . ?
O2 C22 C2 120.1(2) . . ?
C23 C22 C2 119.8(2) . . ?
C28 C23 C24 119.4(2) . . ?
C28 C23 C22 122.6(2) . . ?
C24 C23 C22 118.0(2) . . ?
C25 C24 C23 120.5(3) . . ?
C25 C24 H24 119.8 . . ?
C23 C24 H24 119.8 . . ?
C24 C25 C26 119.8(2) . . ?
C24 C25 H25 120.1 . . ?
C26 C25 H25 120.1 . . ?
C27 C26 C25 120.5(3) . . ?
C27 C26 C29 119.5(3) . . ?
C25 C26 C29 120.0(2) . . ?
C26 C27 C28 119.7(3) . . ?
C26 C27 H27 120.1 . . ?
C28 C27 H27 120.1 . . ?
C27 C28 C23 120.1(2) . . ?
C27 C28 H28 119.9 . . ?
C23 C28 H28 119.9 . . ?
F5A C29 F6A 115.7(17) . . ?
F3A C29 F2A 106.7(4) . . ?
F3A C29 F1A 107.0(3) . . ?
F2A C29 F1A 104.3(3) . . ?
F5A C29 F4A 100.1(13) . . ?
F6A C29 F4A 102.3(14) . . ?
F5A C29 C26 113.5(9) . . ?
F6A C29 C26 112.0(17) . . ?
F3A C29 C26 113.4(3) . . ?
F2A C29 C26 112.4(3) . . ?
F1A C29 C26 112.3(3) . . ?
F4A C29 C26 111.9(12) . . ?
 
loop_
 _geom_torsion_atom_site_label_1
 _geom_torsion_atom_site_label_2
 _geom_torsion_atom_site_label_3
 _geom_torsion_atom_site_label_4
 _geom_torsion
 _geom_torsion_site_symmetry_1
 _geom_torsion_site_symmetry_2
 _geom_torsion_site_symmetry_3
 _geom_torsion_site_symmetry_4
 _geom_torsion_publ_flag
O1 C1 C2 C22 -104.5(3) . . . . ?
C15 C1 C2 C22 70.7(3) . . . . ?
O1 C1 C2 C3 13.4(4) . . . . ?
C15 C1 C2 C3 -171.5(2) . . . . ?
O1 C1 C2 C3A 19.9(12) . . . . ?
C15 C1 C2 C3A -164.9(11) . . . . ?
C3A C4 C5 C6 -175.7(17) . . . . ?
C3 C4 C5 C6 171.8(3) . . . . ?
C4 C5 C6 C7 177.1(2) . . . . ?
C5 C6 C7 C8 78.0(3) . . . . ?
C5 C6 C7 C12 -97.6(3) . . . . ?
C12 C7 C8 C9 0.6(4) . . . . ?
C6 C7 C8 C9 -175.1(2) . . . . ?
C7 C8 C9 C10 -0.1(4) . . . . ?
C8 C9 C10 C11 -0.2(4) . . . . ?
C9 C10 C11 C12 0.0(4) . . . . ?
C10 C11 C12 C7 0.5(4) . . . . ?
C8 C7 C12 C11 -0.8(4) . . . . ?
C6 C7 C12 C11 174.9(2) . . . . ?
C5 C4 C3 C13 55.8(4) . . . . ?
C5 C4 C3 C2 178.8(3) . . . . ?
C1 C2 C3 C13 -166.9(3) . . . . ?
C22 C2 C3 C13 -49.8(3) . . . . ?
C1 C2 C3 C4 69.8(3) . . . . ?
C22 C2 C3 C4 -173.1(3) . . . . ?
C4 C3 C13 C14 -125.4(3) . . . . ?
C2 C3 C13 C14 111.1(4) . . . . ?
C5 C4 C3A C13A -45(3) . . . . ?
C5 C4 C3A C2 -169.1(16) . . . . ?
C1 C2 C3A C13A -77(2) . . . . ?
C22 C2 C3A C13A 47(3) . . . . ?
C1 C2 C3A C4 50(3) . . . . ?
C22 C2 C3A C4 173.7(17) . . . . ?
C4 C3A C13A C14A 121(3) . . . . ?
C2 C3A C13A C14A -114(3) . . . . ?
O1 C1 C15 C20 28.6(4) . . . . ?
C2 C1 C15 C20 -146.7(2) . . . . ?
O1 C1 C15 C16 -153.0(3) . . . . ?
C2 C1 C15 C16 31.8(3) . . . . ?
C20 C15 C16 C17 1.0(4) . . . . ?
C1 C15 C16 C17 -177.4(2) . . . . ?
C15 C16 C17 C18 1.5(4) . . . . ?
C16 C17 C18 C19 -2.8(4) . . . . ?
C16 C17 C18 C21 177.9(3) . . . . ?
C17 C18 C19 C20 1.6(4) . . . . ?
C21 C18 C19 C20 -179.2(3) . . . . ?
C18 C19 C20 C15 1.0(4) . . . . ?
C16 C15 C20 C19 -2.3(4) . . . . ?
C1 C15 C20 C19 176.2(2) . . . . ?
C19 C18 C21 F6B 70(2) . . . . ?
C17 C18 C21 F6B -111(2) . . . . ?
C19 C18 C21 F1B 162.3(5) . . . . ?
C17 C18 C21 F1B -18.4(6) . . . . ?
C19 C18 C21 F3B -73.7(5) . . . . ?
C17 C18 C21 F3B 105.6(5) . . . . ?
C19 C18 C21 F4B -51.9(18) . . . . ?
C17 C18 C21 F4B 127.3(18) . . . . ?
C19 C18 C21 F2B 43.8(5) . . . . ?
C17 C18 C21 F2B -136.9(4) . . . . ?
C19 C18 C21 F5B -158(2) . . . . ?
C17 C18 C21 F5B 21(2) . . . . ?
C1 C2 C22 O2 36.1(3) . . . . ?
C3 C2 C22 O2 -83.7(3) . . . . ?
C3A C2 C22 O2 -95.8(16) . . . . ?
C1 C2 C22 C23 -149.4(2) . . . . ?
C3 C2 C22 C23 90.8(3) . . . . ?
C3A C2 C22 C23 78.8(16) . . . . ?
O2 C22 C23 C28 -145.7(2) . . . . ?
C2 C22 C23 C28 39.8(3) . . . . ?
O2 C22 C23 C24 35.5(3) . . . . ?
C2 C22 C23 C24 -139.0(2) . . . . ?
C28 C23 C24 C25 -1.8(4) . . . . ?
C22 C23 C24 C25 177.0(2) . . . . ?
C23 C24 C25 C26 1.8(4) . . . . ?
C24 C25 C26 C27 0.4(4) . . . . ?
C24 C25 C26 C29 -179.9(2) . . . . ?
C25 C26 C27 C28 -2.7(4) . . . . ?
C29 C26 C27 C28 177.7(2) . . . . ?
C26 C27 C28 C23 2.7(4) . . . . ?
C24 C23 C28 C27 -0.5(4) . . . . ?
C22 C23 C28 C27 -179.2(2) . . . . ?
C27 C26 C29 F5A -111(2) . . . . ?
C25 C26 C29 F5A 69(2) . . . . ?
C27 C26 C29 F6A 115.4(17) . . . . ?
C25 C26 C29 F6A -64.2(17) . . . . ?
C27 C26 C29 F3A -30.4(6) . . . . ?
C25 C26 C29 F3A 150.0(5) . . . . ?
C27 C26 C29 F2A 90.9(4) . . . . ?
C25 C26 C29 F2A -88.8(4) . . . . ?
C27 C26 C29 F1A -151.8(4) . . . . ?
C25 C26 C29 F1A 28.5(5) . . . . ?
C27 C26 C29 F4A 1.1(15) . . . . ?
C25 C26 C29 F4A -178.5(15) . . . . ?
 
_refine_diff_density_max    0.208
_refine_diff_density_min   -0.206
_refine_diff_density_rms    0.043

_shelx_res_file
;

    Breit_TB13_85_0m.res created by SHELXL-2014/7


TITL TB13_85 in C2
REM Old TITL c2 in C2

REM SHELXT solution in C2
REM R1 0.131,  Rweak 0.022,  Alpha 0.005,  Orientation as input
REM Flack x =  0.014 ( 0.343 ) from Parsons' quotients
REM Formula found by SHELXT:  C29 O2 F6

CELL  0.71073  23.8921   5.4785  21.9446   90.000  120.422   90.000
ZERR   4.000   0.0020   0.0005   0.0018    0.000    0.004    0.000
LATT -7
SYMM -X, Y, -Z
SFAC  C  H  O  F
UNIT 116 96 8 24
TEMP -173.140
L.S.  10
BOND $H
LIST 4
SIZE 0.33 0.04 0.04
ACTA
CONF
ABCD Hallo
FMAP 2
PLAN 20
WGHT    0.060300
EXTI    0.002632
FVAR       0.39345   0.85953   0.85164   0.88173
O1    3    0.517612    0.195576    0.637491    11.00000    0.03429    0.04098 =
         0.02756   -0.00765    0.01440   -0.00985
O2    3    0.641293   -0.014296    0.780799    11.00000    0.03785    0.02202 =
         0.03511    0.00062    0.01587   -0.00295
C1    1    0.542178    0.290130    0.694918    11.00000    0.02759    0.02039 =
         0.02248    0.00029    0.01072   -0.00121
C2    1    0.611600    0.385968    0.732371    11.00000    0.02442    0.02100 =
         0.02066   -0.00015    0.00960   -0.00085
PART 1 41
AFIX  13
H2    2    0.613682    0.550034    0.753396    41.00000   -1.20000
AFIX  13
PART 2 -41
H2A   2    0.611625    0.540573    0.756609   -41.00000   -1.20000
AFIX   0
PART 0
C4    1    0.604342    0.604239    0.626080    11.00000    0.03216    0.02922 =
         0.02776    0.00442    0.01666    0.00379
PART 1 41
AFIX  23
H4A   2    0.557184    0.570178    0.598415    41.00000   -1.20000
H4B   2    0.610482    0.761601    0.650881    41.00000   -1.20000
AFIX  23
PART 2 -41
H4C   2    0.559980    0.535082    0.600024   -41.00000   -1.20000
H4D   2    0.601266    0.769367    0.642480   -41.00000   -1.20000
AFIX   0
PART 0
C5    1    0.630529    0.626099    0.575924    11.00000    0.03644    0.03726 =
         0.03238    0.00941    0.02112    0.00810
AFIX  23
H5A   2    0.676143    0.682321    0.603129    11.00000   -1.20000
H5B   2    0.630530    0.461995    0.557036    11.00000   -1.20000
AFIX   0
C6    1    0.592866    0.798707    0.514294    11.00000    0.02739    0.04193 =
         0.02762    0.00838    0.01402    0.00569
AFIX  23
H6A   2    0.591073    0.962337    0.532376    11.00000   -1.20000
H6B   2    0.547825    0.738612    0.484770    11.00000   -1.20000
AFIX   0
C7    1    0.624669    0.817890    0.469551    11.00000    0.02291    0.02748 =
         0.02069    0.00676    0.00756    0.00456
C8    1    0.616526    0.635242    0.422063    11.00000    0.02600    0.02617 =
         0.02578    0.00316    0.00811   -0.00182
AFIX  43
H8    2    0.588097    0.502942    0.414807    11.00000   -1.20000
AFIX   0
C9    1    0.649392    0.642972    0.384896    11.00000    0.03609    0.02643 =
         0.02410    0.00150    0.01078    0.00461
AFIX  43
H9    2    0.643506    0.516676    0.352507    11.00000   -1.20000
AFIX   0
C10   1    0.690825    0.836221    0.395403    11.00000    0.02927    0.03925 =
         0.02567    0.00776    0.01503    0.00679
AFIX  43
H10   2    0.713517    0.842084    0.370256    11.00000   -1.20000
AFIX   0
C11   1    0.699168    1.019597    0.442168    11.00000    0.02713    0.02837 =
         0.03014    0.00467    0.01147   -0.00053
AFIX  43
H11   2    0.727569    1.151844    0.449277    11.00000   -1.20000
AFIX   0
C12   1    0.666044    1.010993    0.478896    11.00000    0.03108    0.02303 =
         0.02498   -0.00077    0.01191    0.00309
AFIX  43
H12   2    0.671700    1.138631    0.510832    11.00000   -1.20000
AFIX   0

PART 1 41
C3    1    0.638208    0.400955    0.680894    41.00000    0.02871    0.02722 =
         0.02631    0.00227    0.01577    0.00128
AFIX  13
H3    2    0.629066    0.241993    0.655166    41.00000   -1.20000
AFIX   0
C13   1    0.710570    0.439131    0.721417    41.00000    0.03015    0.04348 =
         0.02737    0.00898    0.01489   -0.00107
AFIX  43
H13   2    0.726633    0.591638    0.744311    41.00000   -1.20000
AFIX   0
C14   1    0.753234    0.272566    0.727065    41.00000    0.03805    0.07080 =
         0.04473    0.02449    0.02816    0.01433
AFIX  93
H14A  2    0.738656    0.118305    0.704758    41.00000   -1.20000
H14B  2    0.798371    0.307524    0.753417    41.00000   -1.20000
AFIX   0
PART 0
EADP C3 C3A
SAME 0.02 C3 > C14
SIMU C3 > C14A
RIGU C3 > C14A C2 C4
SADI C2 C3 C2 C3A
SADI C3 C4 C3A C4
SIMU 0.01 0.02 0.92 C14 C14A
PART 2 -41
C3A   1    0.646462    0.443730    0.690478   -41.00000    0.02871    0.02722 =
         0.02631    0.00227    0.01577    0.00128
AFIX  13
H3A   2    0.686459    0.539014    0.722558   -41.00000   -1.20000
AFIX   0
C13A  1    0.667832    0.209574    0.674027   -41.00000    0.03776    0.03030 =
         0.02293    0.00110    0.01593    0.00406
AFIX  43
H13A  2    0.635388    0.098365    0.642895   -41.00000   -1.20000
AFIX   0
C14A  1    0.729487    0.147621    0.700333   -41.00000    0.04038    0.03837 =
         0.03866    0.00741    0.02229    0.00930
AFIX  93
H14C  2    0.762996    0.255144    0.731605   -41.00000   -1.20000
H14D  2    0.740164   -0.004303    0.687914   -41.00000   -1.20000
AFIX   0
PART 0

C15   1    0.506520    0.299293    0.735063    11.00000    0.02279    0.02547 =
         0.02033    0.00249    0.00779    0.00225
C16   1    0.517417    0.480136    0.784414    11.00000    0.02574    0.02574 =
         0.02672   -0.00144    0.01095   -0.00015
AFIX  43
H16   2    0.547166    0.608273    0.792407    11.00000   -1.20000
AFIX   0
C17   1    0.485113    0.474279    0.821943    11.00000    0.02994    0.03285 =
         0.02542   -0.00396    0.01159    0.00386
AFIX  43
H17   2    0.491800    0.599970    0.854785    11.00000   -1.20000
AFIX   0
C18   1    0.442913    0.283392    0.811189    11.00000    0.02721    0.03624 =
         0.02713    0.00418    0.01373    0.00668
C19   1    0.430787    0.105783    0.761322    11.00000    0.02840    0.02987 =
         0.03276    0.00275    0.01553   -0.00299
AFIX  43
H19   2    0.400992   -0.022052    0.753444    11.00000   -1.20000
AFIX   0
C20   1    0.462117    0.114330    0.722840    11.00000    0.02779    0.02570 =
         0.02542   -0.00302    0.01099   -0.00300
AFIX  43
H20   2    0.453285   -0.006343    0.688008    11.00000   -1.20000
AFIX   0
C21   1    0.409232    0.269174    0.853004    11.00000    0.04326    0.05063 =
         0.04219    0.00285    0.02728    0.00437

REM CF3 group made by DSR:
SADI 0.02 C21 F1B C21 F2B C21 F3B  C21 F4B C21 F5B C21 F6B
SADI 0.04 F1B F2B F2B F3B F3B F1B  F4B F5B F5B F6B F6B F4B
SADI 0.1  C18 F1B C18 F2B C18 F3B  C18 F4B C18 F5B C18 F6B
RIGU C18 C21 F1B > F6B

PART 1
F1B   4    0.436658    0.402891    0.910989    31.00000    0.08111    0.09121 =
         0.05607   -0.02753    0.05347   -0.02382
F2B   4    0.409675    0.038422    0.875290    31.00000    0.07117    0.06279 =
         0.06044    0.01426    0.04976    0.00497
F3B   4    0.346777    0.328818    0.815725    31.00000    0.04529    0.09883 =
         0.06956    0.02502    0.03936    0.02983
PART 2
F4B   4    0.345028    0.245330    0.808314   -31.00000    0.04441    0.08243 =
         0.07055   -0.00372    0.04101    0.00069
F5B   4    0.407368    0.493048    0.879297   -31.00000    0.09243    0.06135 =
         0.08733   -0.01825    0.07379   -0.00800
F6B   4    0.425585    0.101036    0.898098   -31.00000    0.06225    0.09107 =
         0.05578    0.02406    0.04026    0.02480
PART 0

REM End of CF3 group made by DSR
REM rem dsr put cf6 on C21
C22   1    0.653027    0.202663    0.790581    11.00000    0.02767    0.02419 =
         0.02322   -0.00009    0.01420   -0.00103
C23   1    0.711473    0.288702    0.856880    11.00000    0.02913    0.02355 =
         0.02386    0.00359    0.01401    0.00062
C24   1    0.767333    0.145509    0.885293    11.00000    0.03464    0.02447 =
         0.02825    0.00147    0.01613    0.00353
AFIX  43
H24   2    0.766641   -0.005549    0.863663    11.00000   -1.20000
AFIX   0
C25   1    0.823565    0.221455    0.944538    11.00000    0.02915    0.03347 =
         0.03027    0.00742    0.01326    0.00580
AFIX  43
H25   2    0.861838    0.125371    0.962884    11.00000   -1.20000
AFIX   0
C26   1    0.824074    0.438545    0.977260    11.00000    0.03153    0.03114 =
         0.02514    0.00486    0.01175   -0.00187
C27   1    0.768405    0.578847    0.951149    11.00000    0.03986    0.02609 =
         0.02824   -0.00166    0.01661   -0.00168
AFIX  43
H27   2    0.768519    0.723924    0.974924    11.00000   -1.20000
AFIX   0
C28   1    0.712388    0.506556    0.890039    11.00000    0.03012    0.02373 =
         0.02661    0.00271    0.01248    0.00366
AFIX  43
H28   2    0.674635    0.605913    0.870833    11.00000   -1.20000
AFIX   0
C29   1    0.884746    0.521852    1.041266    11.00000    0.03462    0.03693 =
         0.03240    0.00478    0.01360   -0.00366

REM CF3 group made by DSR:
SADI 0.02 C29 F1A C29 F2A C29 F3A  C29 F4A C29 F5A C29 F6A
SADI 0.04 F1A F2A F2A F3A F3A F1A  F4A F5A F5A F6A F6A F4A
SADI 0.1  C26 F1A C26 F2A C26 F3A  C26 F4A C26 F5A C26 F6A
RIGU C26 C29 F1A > F6A

PART 1
F1A   4    0.938626    0.441217    1.042328    21.00000    0.03086    0.10259 =
         0.04143   -0.01175    0.01241   -0.00813
F2A   4    0.890275    0.435466    1.100837    21.00000    0.04786    0.06234 =
         0.02267    0.00238    0.01013   -0.00925
F3A   4    0.889606    0.759024    1.047700    21.00000    0.06904    0.03373 =
         0.05704    0.00786   -0.02070   -0.01791
PART 2
F4A   4    0.875841    0.735798    1.067302   -21.00000    0.05190    0.03750 =
         0.04835   -0.00016    0.00872    0.00594
F5A   4    0.929293    0.587022    1.028532   -21.00000    0.03955    0.09026 =
         0.04581   -0.00030    0.02317   -0.01656
F6A   4    0.902688    0.374338    1.093947   -21.00000    0.05316    0.04457 =
         0.03392    0.01291    0.01171    0.00649
PART 0

REM End of CF3 group made by DSR
REM rem dsr put cf6 on C29
HKLF 4

REM  TB13_85 in C2
REM R1 =  0.0460 for    4672 Fo > 4sig(Fo)  and  0.0699 for all    6295 data
REM    413 parameters refined using    321 restraints

END

WGHT      0.0602      0.0000

REM Highest difference peak  0.208,  deepest hole -0.206,  1-sigma level  0.043
Q1    1   0.3636  0.5033  0.8390  11.00000  0.05    0.18
Q2    1   0.5779  0.3353  0.7195  11.00000  0.05    0.18
Q3    1   0.4307  0.2221  0.7798  11.00000  0.05    0.17
Q4    1   0.5391  0.5956  0.6807  11.00000  0.05    0.17
Q5    1   0.7187  0.4039  0.6595  11.00000  0.05    0.17
Q6    1   0.7164  0.7162  0.3222  11.00000  0.05    0.17
Q7    1   0.9316  0.3542  1.0601  11.00000  0.05    0.16
Q8    1   0.6182  0.9283  0.5707  11.00000  0.05    0.16
Q9    1   0.8483  0.4959  1.0116  11.00000  0.05    0.16
Q10   1   0.7002  0.8965  0.4297  11.00000  0.05    0.16
Q11   1   0.4735  0.7497  0.9687  11.00000  0.05    0.15
Q12   1   0.8303  0.1504  1.0393  11.00000  0.05    0.15
Q13   1   0.6332  0.6897  0.4552  11.00000  0.05    0.15
Q14   1   0.5294  0.2957  0.7204  11.00000  0.05    0.15
Q15   1   0.4606  0.0896  0.7593  11.00000  0.05    0.15
Q16   1   0.6736  0.2746  0.8186  11.00000  0.05    0.15
Q17   1   0.4244  0.1815  0.7272  11.00000  0.05    0.15
Q18   1   0.7151  0.3786  0.8931  11.00000  0.05    0.15
Q19   1   0.7971  0.1299  0.7121  11.00000  0.05    0.15
Q20   1   0.8391  0.2165  0.8207  11.00000  0.05    0.15
;
_shelx_res_checksum   37798

