REM Solution 1  R1  0.256,  Alpha = 0.0495  in P2(1)/c      
REM C102 N32 Cl4 Cu0.5 S I6
TITL p21c in P2(1)/c
CELL  0.71073  23.6015  20.9757  26.1674   90.000  101.784   90.000
ZERR    8.00   0.0025   0.0017   0.0044   0.000   0.006   0.000
LATT  1
SYMM -X, 1/2+Y, 1/2-Z
SFAC C H N CL AU CU S I
UNIT 320 320 144 48 48 8 8 8
TEMP -162.0
SIZE 0.08 0.10 0.11
SHEL 999 0.898
L.S. 10
BOND
LIST 6
FMAP 2
PLAN 20
ANIS
DELU
I001  8  0.88194  0.13155  0.24642 11.00000  0.04116  62.33
I002  8  1.08258  0.00133  0.23927 11.00000  0.04429  61.85
I003  8  0.59863 -0.49713 -0.24675 11.00000  0.04475  61.42
I004  8  1.08340  0.25638  0.24196 11.00000  0.04768  60.96
I005  8  0.59429 -0.75641 -0.25222 11.00000  0.04561  60.17
I006  8  0.40196 -0.62126 -0.23632 11.00000  0.05487  57.36
CU07  6  1.00000  0.50000  0.00000 10.50000  0.06915  25.83
CL08  4  1.07831  0.54248  0.05962 11.00000  0.09650  13.14
S009  7  0.64732 -1.03995 -0.00306 11.00000  0.09610  12.65
CL0A  4  0.82300 -0.77978  0.05576 11.00000  0.12410  10.82
CL0B  4  0.72014 -0.57185  0.05555 11.00000  0.12877  10.02
CL0C  4  0.75580 -0.69052  0.01555 11.00000  0.11813   9.83
N00D  3  0.63694 -0.25234  0.02427 11.00000  0.05071   9.32
N00E  3  0.53503 -0.28600  0.01280 11.00000  0.05327   8.97
N00F  3  0.61057 -0.97231  0.05298 11.00000  0.05853   8.80
N00G  3  0.88124 -0.20141 -0.05422 11.00000  0.05522   8.22
N00H  3  0.71828 -0.35464  0.01621 11.00000  0.08450   7.52
N00I  3  0.89872  0.07859  0.13902 11.00000  0.07378   7.38
N00J  3  0.57054 -0.78012 -0.09643 11.00000  0.05468   7.20
N00K  3  0.77935 -0.84641 -0.04810 11.00000  0.06639   7.20
N00L  3  0.86805  0.05217  0.09618 11.00000  0.08568   7.17
N00M  3  1.04483  0.00773  0.34595 11.00000  0.07801   7.12
N00N  3  0.95082  0.17577  0.35275 11.00000  0.05484   7.10
N00O  3  0.81289 -0.33200 -0.04413 11.00000  0.08240   7.07
N00P  3  0.76437 -0.98657 -0.08686 11.00000  0.06355   6.99
N00Q  3  0.57155 -0.75657 -0.13917 11.00000  0.09138   6.96
N00R  3  0.70763 -0.73585 -0.07876 11.00000  0.06655   6.95
N00S  3  0.60402 -0.82554 -0.10510 11.00000  0.08094   6.89
N00T  3  0.99682  0.25336  0.13344 11.00000  0.07628   6.87
N00U  3  0.46468 -0.54331 -0.08880 11.00000  0.07245   6.86
N00V  3  0.68751 -1.09816  0.04992 11.00000  0.08871   6.86
N00W  3  0.80759  0.05839  0.09566 11.00000  0.08244   6.86
N00X  3  0.47011 -0.57262 -0.13177 11.00000  0.06761   6.86
N00Y  3  0.89219  0.19983  0.40043 11.00000  0.06282   6.85
N00Z  3  0.58724 -0.68649 -0.35608 11.00000  0.10124   6.84
N010  3  1.09627 -0.06341  0.38768 11.00000  0.07293   6.83
N011  3  1.06673 -0.01711  0.39606 11.00000  0.06117   6.82
N012  3  0.98428  0.26427  0.08763 11.00000  0.08992   6.80
N013  3  0.80293 -0.45294  0.07202 11.00000  0.07984   6.80
N014  3  0.49554 -0.47913 -0.40165 11.00000  0.06984   6.75
C015  1  0.52861 -0.42558 -0.39791 11.00000  0.07869   6.74
N016  3  0.94615  0.20764  0.40678 11.00000  0.07829   6.73
N017  3  1.03556  0.12456  0.36113 11.00000  0.07904   6.64
N018  3  0.68842 -1.02905 -0.08774 11.00000  0.09575   6.52
N019  3  0.65502 -0.56246 -0.14401 11.00000  0.06776   6.50
C01A  1  0.41454 -0.68008 -0.34726 11.00000  0.07412   6.49
C01B  1  0.51354 -0.49987 -0.34393 11.00000  0.06605   6.45
C01C  1  1.12702  0.19700  0.34492 11.00000  0.05101   6.44
C01D  1  1.06377  0.06191  0.12343 11.00000  0.06667   6.42
C01E  1  1.00934  0.06091  0.33698 11.00000  0.06796   6.40
C01F  1  0.92010 -0.18144 -0.00048 11.00000  0.05726   6.40
C01G  1  1.03152  0.31675  0.08737 11.00000  0.06671   6.34
C01H  1  0.41530 -0.55116 -0.08382 11.00000  0.07191   6.29
C01I  1  1.00951  0.19117  0.33531 11.00000  0.07768   6.28
C01J  1  0.62165 -0.62824 -0.15585 11.00000  0.05730   6.23
C01K  1  0.56639 -0.44119 -0.36042 11.00000  0.09120   6.22
C01L  1  0.32831 -0.68824 -0.38285 11.00000  0.08649   6.22
C01M  1  0.62067 -0.83643 -0.14680 11.00000  0.05832   6.16
C01N  1  0.98315  0.12350  0.12638 11.00000  0.06490   6.14
C01O  1  0.38039 -0.69138 -0.38632 11.00000  0.06836   6.10
C01P  1  0.96476  0.19417  0.14652 11.00000  0.06410   6.05
C01Q  1  0.95419  0.07704  0.14943 11.00000  0.06170   6.05
C01R  1  0.55502 -0.63284 -0.13737 11.00000  0.06286   5.99
C01S  1  0.62062 -0.74510 -0.40581 11.00000  0.06971   5.92
C01T  1  0.52954 -0.68932 -0.14614 11.00000  0.04898   5.91
C01U  1  1.05969  0.30930  0.14048 11.00000  0.08750   5.88
C01V  1  0.80461  0.09254  0.14647 11.00000  0.07632   5.86
C01W  1  1.11620 -0.07492  0.35022 11.00000  0.06535   5.79
C01X  1  0.52753 -0.56321 -0.15111 11.00000  0.06968   5.77
C01Y  1  0.90048  0.15504  0.31995 11.00000  0.05756   5.75
C01Z  1  0.85717  0.17779  0.35281 11.00000  0.06720   5.73
C020  1  1.05278  0.12136  0.13474 11.00000  0.08504   5.72
C021  1  0.59913 -0.69709 -0.40647 11.00000  0.08456   5.72
C022  1  0.48044 -0.55989 -0.33491 11.00000  0.07490   5.70
C023  1  0.59210 -0.78002 -0.17644 11.00000  0.07151   5.70
C024  1  0.37990 -0.57781 -0.12469 11.00000  0.07764   5.68
C025  1  0.50052 -0.62625 -0.36022 11.00000  0.04627   5.65
C026  1  1.11183 -0.09799  0.43591 11.00000  0.06941   5.65
C027  1  1.04727  0.28465  0.17056 11.00000  0.07272   5.65
C028  1  1.07881 -0.01322  0.31678 11.00000  0.07025   5.62
C029  1  0.64654 -0.51162 -0.17937 11.00000  0.06388   5.62
C02A  1  0.59756 -0.74344 -0.33402 11.00000  0.07529   5.59
C02B  1  0.46969 -0.67575 -0.34455 11.00000  0.06436   5.59
C02C  1  0.85174  0.10334  0.17257 11.00000  0.06882   5.59
C02D  1  0.57169 -0.62704 -0.33822 11.00000  0.06307   5.58
C02E  1  0.58003 -0.62438 -0.07097 11.00000  0.07931   5.56
C02F  1  0.55447 -0.47421 -0.31180 11.00000  0.06998   5.51
C02G  1  0.69852 -0.56659 -0.10273 11.00000  0.07502   5.49
C02H  1  1.17024  0.21461  0.39719 11.00000  0.09115   5.46
C02I  1  0.31679 -0.64904 -0.33786 11.00000  0.08956   5.44
C02J  1  0.64644 -1.03601 -0.06831 11.00000  0.08040   5.43
C02K  1  1.10467  0.13525  0.33852 11.00000  0.05952   5.43
C02L  1  0.74900  0.10599  0.15327 11.00000  0.09253   5.42
C02M  1  0.97144  0.13244  0.06404 11.00000  0.07654   5.41
C02N  1  1.05472  0.12657  0.42014 11.00000  0.06812   5.38
C02O  1  0.62016 -0.78536 -0.36334 11.00000  0.06887   5.37
C02P  1  0.62763 -0.87238 -0.06023 11.00000  0.06571   5.30
C02Q  1  1.16968  0.26988  0.39464 11.00000  0.06334   5.26
C02R  1  1.08283  0.01958  0.16044 11.00000  0.07619   5.26
C02S  1  1.11683  0.36300  0.14288 11.00000  0.07321   5.22
C02T  1  0.65517 -0.87294 -0.16132 11.00000  0.08690   5.19
C02U  1  1.12164  0.24396  0.31313 11.00000  0.06682   5.18
C02V  1  0.62522 -0.94063 -0.17985 11.00000  0.09303   5.15
C02W  1  0.72424 -0.51148 -0.10481 11.00000  0.06929   5.14
C02X  1  0.42296 -0.59331 -0.15939 11.00000  0.06933   5.10
C02Y  1  1.06531  0.03618  0.08459 11.00000  0.07047   5.08
C02Z  1  1.15446 -0.10567  0.33746 11.00000  0.07400   5.03
C030  1  1.09600 -0.02038  0.09089 11.00000  0.07684   4.94
C031  1  0.37503 -0.65229 -0.30701 11.00000  0.06941   4.93
C032  1  0.69047 -0.48480 -0.14474 11.00000  0.08948   4.91
C033  1  0.70370 -0.39742 -0.15354 11.00000  0.07335   4.88
C034  1  0.49095 -0.62324 -0.42029 11.00000  0.08735   4.87
C035  1  1.15980  0.29172  0.34929 11.00000  0.07650   4.85
C036  1  0.86652  0.21464  0.44952 11.00000  0.05869   4.85
C037  1  1.01839  0.36449  0.04004 11.00000  0.08635   4.84
C038  1  1.09146  0.43249  0.17295 11.00000  0.06662   4.82
C039  1  0.75855  0.05273  0.04717 11.00000  0.08832   4.76
C03A  1  0.79173  0.17070  0.34783 11.00000  0.08722   4.72
C03B  1  0.96287 -0.11443  0.07366 11.00000  0.07167   4.71
C03C  1  0.60924 -0.37690 -0.34735 11.00000  0.09320   4.71
C03D  1  0.52935 -0.39329 -0.44372 11.00000  0.07530   4.70
C03E  1  0.31523 -0.58755 -0.12846 11.00000  0.07605   4.66
C03F  1  1.18151  0.36502  0.34297 11.00000  0.08942   4.66
C03G  1  1.12127 -0.17884  0.31534 11.00000  0.10236   4.59
C03H  1  0.64112 -0.85076 -0.35465 11.00000  0.09359   4.55
C03I  1  1.10929 -0.04428  0.13383 11.00000  0.07691   4.49
C03J  1  0.76632 -0.49221 -0.05640 11.00000  0.07812   4.42
C03K  1  0.58036 -0.31407 -0.32641 11.00000  0.06307   4.35
C03L  1  0.66515 -0.36134 -0.13888 11.00000  0.08117   4.26
C03M  1  0.39089 -0.54614 -0.03269 11.00000  0.08110   4.19
C03N  1  0.73479  0.05759  0.20892 11.00000  0.08234   4.15
C03O  1  1.14355  0.46319  0.19409 11.00000  0.08189   4.09
C03P  1  0.56627 -0.93480 -0.23305 11.00000  0.08286   4.08
C03Q  1  0.26726 -0.64643 -0.32867 11.00000  0.08992   4.08
C03R  1  0.27769 -0.70884 -0.43268 11.00000  0.08472   4.07
C03S  1  0.73377 -0.00301  0.19260 11.00000  0.09144   4.01
C03T  1  0.59549 -0.88146 -0.37273 11.00000  0.08997   4.00
C03U  1  0.64024 -0.76489 -0.45414 11.00000  0.10861   3.95
C03V  1  0.94996 -0.19361  0.04000 11.00000  0.09399   3.87
C03W  1  0.56119 -0.30503 -0.27395 11.00000  0.07869   3.84
C03X  1  1.08143 -0.12814  0.13599 11.00000  0.07100   3.82
C03Y  1  1.11882  0.37334  0.25919 11.00000  0.07420   3.74
C03Z  1  0.61153 -0.39027 -0.25306 11.00000  0.09772   3.55
C040  1  0.78673  0.13209  0.24725 11.00000  0.09368   3.44
C041  1  0.27860 -0.63434 -0.25962 11.00000  0.07969   3.15
C042  1  0.91926  0.23194  0.25263 11.00000  0.08778   3.10
HKLF 4
END 
